ALGO = Normal
AMIX = 0.2
EDIFF = 1e-06
EDIFFG = -0.05
ENCUT = 550
IBRION = 2
ISIF = 2
ISMEAR = 0
ISPIN = 1
ISYM = 2
LCHARG = .FALSE.
LORBIT = 11
LREAL = .FALSE.
LVTOT = True
LWAVE = .FALSE.
NELECT = 384.0
NELM = 200
NSW = 0
SIGMA = 0.05
SYSTEM = SiO2
