Na32 Nb32 O95                           
   1.00000000000000     
    11.1480910000000009    0.0000000000000000    0.0000000000000000
     0.0000000000000000   11.3660429999999995    0.0000000000000000
     0.0000000000000000    0.0000000000000000   15.5949340000000003
   Na   Nb   O 
    32    32    95
Direct
  0.1281717127987302  0.1261576800140327  0.0008905410465467
  0.1281517576355941  0.6264321065708182  0.9994830566390035
  0.6294212744129655  0.1256696784203773  0.0012300192760028
  0.6291489651489486  0.6248163413005782  0.0002005377409451
  0.3642384182113755  0.3713579967230061  0.4922861047307125
  0.3741647884439211  0.8858532005899658  0.4961063152525276
  0.8744135357869131  0.3783047123200202  0.4962478781560457
  0.8677217478285350  0.8815009057991311  0.4949303005351538
  0.3710419894031043  0.3748652449214283  0.0006649009796914
  0.3707768674308013  0.8755281359476430  0.0007102319785409
  0.8698683758869287  0.3760630623336676  0.0006652060914117
  0.8704125563587761  0.8757302592342421  0.0003174465461010
  0.1293983264578102  0.1307864940550428  0.4936137280870591
  0.1368495781746466  0.6217943031984203  0.4942865673686446
  0.6272563478608154  0.1177004723077145  0.4965655880165776
  0.6272395401495720  0.6251004958450618  0.5020561734403186
  0.1300571105142913  0.0995164216144634  0.2491675624087775
  0.1306476023179061  0.6010528766284248  0.2498687812750322
  0.6295871525862961  0.0998191645430804  0.2493587619880641
  0.6304055690883106  0.5987248877415338  0.2495403727722984
  0.1282215942468710  0.1524310264371239  0.7545428240224449
  0.1287517667823831  0.6490108620420333  0.7549083635890069
  0.6270389913047917  0.1389731172341303  0.7602331527906285
  0.6275875879615755  0.6487102526454741  0.7489531564936841
  0.3703550222624667  0.3505782459816580  0.2488042936691815
  0.3695566711889408  0.8509413350034151  0.2494650344913287
  0.8690866137312773  0.3500791725750851  0.2487535578483830
  0.8694405089139613  0.8504249906946089  0.2496285591434022
  0.3670715192853733  0.3967307935371157  0.7576030000717893
  0.3737853025731491  0.9033442175400226  0.7549622624082322
  0.8815809889100633  0.3952280767752854  0.7584774407618531
  0.8676867013849974  0.9002510634688851  0.7532711959936083
  0.1212499848498273  0.3608694231287088  0.1251495849122012
  0.1216031113538638  0.8608539643858862  0.1250521894889463
  0.6214037369158402  0.3599840560930120  0.1248096410400434
  0.6213972119984805  0.8602780142637894  0.1259824891012839
  0.1219651353837964  0.3884178693121735  0.8755071824485422
  0.1218613968633759  0.8877507072672164  0.8741670006656456
  0.6205715861359409  0.3868618609394727  0.8737899483225209
  0.6221360626965901  0.8872343507523215  0.8758260109307791
  0.3771902662892689  0.1115224373901075  0.3732499689093593
  0.3818706992485270  0.6102153258772015  0.3745561241522161
  0.8773326526409319  0.1121145699844022  0.3736844474790298
  0.8772468906558542  0.6103809922356753  0.3747838874093654
  0.3708321217490175  0.1394002388928427  0.6255855309337274
  0.3746945679006893  0.6522059437037484  0.6279466319439579
  0.8862446624274504  0.1346462580178905  0.6236567140071093
  0.8883156045320107  0.6463082371239476  0.6222458938100976
  0.3776550643576398  0.1380169814918989  0.8757878453859351
  0.3781072828435036  0.6369821549283088  0.8745954309949291
  0.8780282911495233  0.1382485285556795  0.8756007836969134
  0.8755708163597741  0.6372205319435276  0.8744849344053812
  0.3781976235147306  0.1106427542912211  0.1248273061544695
  0.3783405407340961  0.6111539399999545  0.1248087325591243
  0.8781481588818906  0.1104303742027352  0.1253072374756776
  0.8785205089425767  0.6111525214199895  0.1255333667060853
  0.1223449801016671  0.3921139358142287  0.6255129818535058
  0.1222162858956772  0.8948660914253609  0.6251034778373058
  0.6359672855687489  0.3588637043295729  0.6262654360295271
  0.6220292167135288  0.8942463416806479  0.6255776061285682
  0.1204269141156634  0.3623492937667038  0.3737419683009164
  0.1207329057143239  0.8607232480748283  0.3756705477274574
  0.6222116831178914  0.3590457971103546  0.3743203783135799
  0.6211020163949962  0.8604381946593184  0.3754348103014190
  0.0178566278621259  0.0212068625247624  0.3949590646986580
  0.0202867270338649  0.5228727535268856  0.3936066209569357
  0.5176057037982804  0.0208231934386081  0.3927080527932104
  0.5238232022591141  0.5216857568290487  0.3918674632813838
  0.0254318434269736  0.2245806548004548  0.6071381803055557
  0.0293002412124818  0.7280232202906504  0.6043853898167372
  0.5110474754594631  0.2411565803649752  0.6001068773205067
  0.5152968699998152  0.7383928609432906  0.6055905697031098
  0.4786857918241728  0.2721805113369551  0.1063002180997134
  0.4784500628332115  0.7729970857664348  0.1074443377029585
  0.9789307045194053  0.2730046863709652  0.1068909859633893
  0.9786768628859055  0.7735524419919189  0.1069941717237212
  0.4769017654047082  0.4742033758640634  0.8907281483346342
  0.4785999775167050  0.9751584136928603  0.8916532955695208
  0.9777735707940215  0.4755408293615374  0.8910428007199703
  0.9795976469490194  0.9753408798893577  0.8920557671773515
  0.6234114648617196  0.5195459937349752  0.6305614241643699
  0.4799542857011328  0.9839027711161431  0.6073992259222675
  0.9766495520738756  0.4774740339885507  0.6092544116373823
  0.9750297901751930  0.9783121733926100  0.6051484689097829
  0.4790550210955189  0.2718381068124797  0.3927535401434046
  0.4790689054608917  0.7710463702666976  0.3958005803439772
  0.9796223726682640  0.2721552869490493  0.3929069836333338
  0.9796268862710509  0.7716178192004711  0.3968823957399634
  0.0212497195938714  0.2259360557467464  0.8924334050716518
  0.0207477298169607  0.7231063107479034  0.8870454777550194
  0.5203190105804424  0.2236577814372549  0.8946993718947528
  0.5212370913492294  0.7245540742380835  0.8904834713175774
  0.0213341108327714  0.0224481931063045  0.1073958555820619
  0.0208322924356434  0.5238303917774787  0.1066116367266361
  0.5205304161422245  0.0225603011282466  0.1069500302926108
  0.5204091640032559  0.5234411541073813  0.1068350201066042
  0.2284259930118564  0.2346155625238130  0.3571214272056755
  0.2293749172131530  0.7319598820776292  0.3638640346880403
  0.7289270307266124  0.2317327698113652  0.3535570775824150
  0.7292051303400791  0.7329418456397138  0.3587750094537852
  0.2240470931831431  0.0253525092199401  0.6458493205810489
  0.2313805720648041  0.5181830520876929  0.6435934301188810
  0.7257197076703579  0.0255255669923548  0.6440523217550173
  0.2718649035680002  0.4839192424227301  0.1434333084675570
  0.2708241688881374  0.9830459227940263  0.1437451802622171
  0.7720328915879850  0.4835382328997088  0.1427777808605254
  0.7714410847734458  0.9830048708003655  0.1441470564979755
  0.2710794725853298  0.2657172197713659  0.8569316051163228
  0.2721883410341706  0.7643843823229319  0.8528368461158001
  0.7722496573651012  0.2657328947970416  0.8568217816677829
  0.7715282296862149  0.7663834350562708  0.8557215513412207
  0.2711925838773573  0.2707753587251110  0.6445318923269742
  0.2724437764319766  0.7775405451394997  0.6459697401545239
  0.7888686844678683  0.2851804300765144  0.6467999789133601
  0.7751030239195649  0.7688599499898434  0.6401923919207638
  0.2721710306743034  0.4840825256449487  0.3579158499195430
  0.2694439101850403  0.9841602210416381  0.3560037708635955
  0.7724549608564683  0.4822333101772762  0.3558345210591404
  0.7704588314036279  0.9837622713368982  0.3576161431721376
  0.2289228809031646  0.0145444354831877  0.8545430386665595
  0.2282421967657426  0.5163278275885178  0.8557478846078233
  0.7290982184722077  0.0152359595363141  0.8576577772847620
  0.7255450457242718  0.5153741448390179  0.8550726090877554
  0.2279727445028864  0.2336463891828616  0.1439174448147272
  0.2283953599892820  0.7333857773852420  0.1438647399222826
  0.7287794643136332  0.2327126433094892  0.1433963123431398
  0.7282319651800337  0.7328852026124298  0.1442752296253076
  0.3373600229049237  0.1232254113645382  0.9998484250330297
  0.3397691458562649  0.6258301432815303  0.9986106911974127
  0.8399472880630973  0.1235375048819868  1.0001310615446435
  0.8396822598035282  0.6254248221772883  0.9986458902726569
  0.1579255219646530  0.3764396303657150  0.5004854579077450
  0.1628172822894069  0.8807741660012751  0.5023162420379981
  0.6632581757273069  0.3661945211718316  0.4984491114130813
  0.6600731185538306  0.8800284648748966  0.5001489719665284
  0.1606906879103004  0.3755835319759449  1.0000225966289162
  0.1598918243181677  0.8715095033332548  0.9986848673258013
  0.6593978947773758  0.3740589409394698  0.9990670543102049
  0.6601382662108335  0.8728573625099018  0.0001973533212514
  0.3376096576845252  0.1241214023513129  0.5005780996809822
  0.3518606863636317  0.6069145869522325  0.5069950871480747
  0.8372054454747702  0.1302196321817495  0.5015588440834908
  0.8364222606852375  0.6152365080309574  0.5033670661766099
  0.0886276245496515  0.3906100503835664  0.2499774136293746
  0.0896473310234807  0.8855210120990843  0.2516201663109114
  0.5893835881559208  0.3882249013582278  0.2489775405486514
  0.5888597044149338  0.8878146675285719  0.2509126075919196
  0.0910573642991474  0.3609293785289091  0.7500094985670174
  0.0870392739485124  0.8619891278385101  0.7476029760018901
  0.5874684400958499  0.3466110123040980  0.7505116809515616
  0.5920193890661233  0.8624593717930717  0.7493003421906740
  0.4104632386735720  0.1391667993496521  0.2497416403968861
  0.4100939098036844  0.6385897879672844  0.2511852538425314
  0.9122657973406201  0.1380723548530033  0.2503398142727999
  0.9108491850657894  0.6389415065366126  0.2508460182505438
  0.4116121099249619  0.1138642421011620  0.7485266061441467
  0.4125569531326280  0.6043725428842924  0.7458812210499536
  0.9095686948459857  0.1114457412496354  0.7491009669685211
  0.8969683477743499  0.6046508276953134  0.7451841283901699
 
  0.00000000E+00  0.00000000E+00  0.00000000E+00
  0.00000000E+00  0.00000000E+00  0.00000000E+00
  0.00000000E+00  0.00000000E+00  0.00000000E+00
  0.00000000E+00  0.00000000E+00  0.00000000E+00
  0.00000000E+00  0.00000000E+00  0.00000000E+00
  0.00000000E+00  0.00000000E+00  0.00000000E+00
  0.00000000E+00  0.00000000E+00  0.00000000E+00
  0.00000000E+00  0.00000000E+00  0.00000000E+00
  0.00000000E+00  0.00000000E+00  0.00000000E+00
  0.00000000E+00  0.00000000E+00  0.00000000E+00
  0.00000000E+00  0.00000000E+00  0.00000000E+00
  0.00000000E+00  0.00000000E+00  0.00000000E+00
  0.00000000E+00  0.00000000E+00  0.00000000E+00
  0.00000000E+00  0.00000000E+00  0.00000000E+00
  0.00000000E+00  0.00000000E+00  0.00000000E+00
  0.00000000E+00  0.00000000E+00  0.00000000E+00
  0.00000000E+00  0.00000000E+00  0.00000000E+00
  0.00000000E+00  0.00000000E+00  0.00000000E+00
  0.00000000E+00  0.00000000E+00  0.00000000E+00
  0.00000000E+00  0.00000000E+00  0.00000000E+00
  0.00000000E+00  0.00000000E+00  0.00000000E+00
  0.00000000E+00  0.00000000E+00  0.00000000E+00
  0.00000000E+00  0.00000000E+00  0.00000000E+00
  0.00000000E+00  0.00000000E+00  0.00000000E+00
  0.00000000E+00  0.00000000E+00  0.00000000E+00
  0.00000000E+00  0.00000000E+00  0.00000000E+00
  0.00000000E+00  0.00000000E+00  0.00000000E+00
  0.00000000E+00  0.00000000E+00  0.00000000E+00
  0.00000000E+00  0.00000000E+00  0.00000000E+00
  0.00000000E+00  0.00000000E+00  0.00000000E+00
  0.00000000E+00  0.00000000E+00  0.00000000E+00
  0.00000000E+00  0.00000000E+00  0.00000000E+00
  0.00000000E+00  0.00000000E+00  0.00000000E+00
  0.00000000E+00  0.00000000E+00  0.00000000E+00
  0.00000000E+00  0.00000000E+00  0.00000000E+00
  0.00000000E+00  0.00000000E+00  0.00000000E+00
  0.00000000E+00  0.00000000E+00  0.00000000E+00
  0.00000000E+00  0.00000000E+00  0.00000000E+00
  0.00000000E+00  0.00000000E+00  0.00000000E+00
  0.00000000E+00  0.00000000E+00  0.00000000E+00
  0.00000000E+00  0.00000000E+00  0.00000000E+00
  0.00000000E+00  0.00000000E+00  0.00000000E+00
  0.00000000E+00  0.00000000E+00  0.00000000E+00
  0.00000000E+00  0.00000000E+00  0.00000000E+00
  0.00000000E+00  0.00000000E+00  0.00000000E+00
  0.00000000E+00  0.00000000E+00  0.00000000E+00
  0.00000000E+00  0.00000000E+00  0.00000000E+00
  0.00000000E+00  0.00000000E+00  0.00000000E+00
  0.00000000E+00  0.00000000E+00  0.00000000E+00
  0.00000000E+00  0.00000000E+00  0.00000000E+00
  0.00000000E+00  0.00000000E+00  0.00000000E+00
  0.00000000E+00  0.00000000E+00  0.00000000E+00
  0.00000000E+00  0.00000000E+00  0.00000000E+00
  0.00000000E+00  0.00000000E+00  0.00000000E+00
  0.00000000E+00  0.00000000E+00  0.00000000E+00
  0.00000000E+00  0.00000000E+00  0.00000000E+00
  0.00000000E+00  0.00000000E+00  0.00000000E+00
  0.00000000E+00  0.00000000E+00  0.00000000E+00
  0.00000000E+00  0.00000000E+00  0.00000000E+00
  0.00000000E+00  0.00000000E+00  0.00000000E+00
  0.00000000E+00  0.00000000E+00  0.00000000E+00
  0.00000000E+00  0.00000000E+00  0.00000000E+00
  0.00000000E+00  0.00000000E+00  0.00000000E+00
  0.00000000E+00  0.00000000E+00  0.00000000E+00
  0.00000000E+00  0.00000000E+00  0.00000000E+00
  0.00000000E+00  0.00000000E+00  0.00000000E+00
  0.00000000E+00  0.00000000E+00  0.00000000E+00
  0.00000000E+00  0.00000000E+00  0.00000000E+00
  0.00000000E+00  0.00000000E+00  0.00000000E+00
  0.00000000E+00  0.00000000E+00  0.00000000E+00
  0.00000000E+00  0.00000000E+00  0.00000000E+00
  0.00000000E+00  0.00000000E+00  0.00000000E+00
  0.00000000E+00  0.00000000E+00  0.00000000E+00
  0.00000000E+00  0.00000000E+00  0.00000000E+00
  0.00000000E+00  0.00000000E+00  0.00000000E+00
  0.00000000E+00  0.00000000E+00  0.00000000E+00
  0.00000000E+00  0.00000000E+00  0.00000000E+00
  0.00000000E+00  0.00000000E+00  0.00000000E+00
  0.00000000E+00  0.00000000E+00  0.00000000E+00
  0.00000000E+00  0.00000000E+00  0.00000000E+00
  0.00000000E+00  0.00000000E+00  0.00000000E+00
  0.00000000E+00  0.00000000E+00  0.00000000E+00
  0.00000000E+00  0.00000000E+00  0.00000000E+00
  0.00000000E+00  0.00000000E+00  0.00000000E+00
  0.00000000E+00  0.00000000E+00  0.00000000E+00
  0.00000000E+00  0.00000000E+00  0.00000000E+00
  0.00000000E+00  0.00000000E+00  0.00000000E+00
  0.00000000E+00  0.00000000E+00  0.00000000E+00
  0.00000000E+00  0.00000000E+00  0.00000000E+00
  0.00000000E+00  0.00000000E+00  0.00000000E+00
  0.00000000E+00  0.00000000E+00  0.00000000E+00
  0.00000000E+00  0.00000000E+00  0.00000000E+00
  0.00000000E+00  0.00000000E+00  0.00000000E+00
  0.00000000E+00  0.00000000E+00  0.00000000E+00
  0.00000000E+00  0.00000000E+00  0.00000000E+00
  0.00000000E+00  0.00000000E+00  0.00000000E+00
  0.00000000E+00  0.00000000E+00  0.00000000E+00
  0.00000000E+00  0.00000000E+00  0.00000000E+00
  0.00000000E+00  0.00000000E+00  0.00000000E+00
  0.00000000E+00  0.00000000E+00  0.00000000E+00
  0.00000000E+00  0.00000000E+00  0.00000000E+00
  0.00000000E+00  0.00000000E+00  0.00000000E+00
  0.00000000E+00  0.00000000E+00  0.00000000E+00
  0.00000000E+00  0.00000000E+00  0.00000000E+00
  0.00000000E+00  0.00000000E+00  0.00000000E+00
  0.00000000E+00  0.00000000E+00  0.00000000E+00
  0.00000000E+00  0.00000000E+00  0.00000000E+00
  0.00000000E+00  0.00000000E+00  0.00000000E+00
  0.00000000E+00  0.00000000E+00  0.00000000E+00
  0.00000000E+00  0.00000000E+00  0.00000000E+00
  0.00000000E+00  0.00000000E+00  0.00000000E+00
  0.00000000E+00  0.00000000E+00  0.00000000E+00
  0.00000000E+00  0.00000000E+00  0.00000000E+00
  0.00000000E+00  0.00000000E+00  0.00000000E+00
  0.00000000E+00  0.00000000E+00  0.00000000E+00
  0.00000000E+00  0.00000000E+00  0.00000000E+00
  0.00000000E+00  0.00000000E+00  0.00000000E+00
  0.00000000E+00  0.00000000E+00  0.00000000E+00
  0.00000000E+00  0.00000000E+00  0.00000000E+00
  0.00000000E+00  0.00000000E+00  0.00000000E+00
  0.00000000E+00  0.00000000E+00  0.00000000E+00
  0.00000000E+00  0.00000000E+00  0.00000000E+00
  0.00000000E+00  0.00000000E+00  0.00000000E+00
  0.00000000E+00  0.00000000E+00  0.00000000E+00
  0.00000000E+00  0.00000000E+00  0.00000000E+00
  0.00000000E+00  0.00000000E+00  0.00000000E+00
  0.00000000E+00  0.00000000E+00  0.00000000E+00
  0.00000000E+00  0.00000000E+00  0.00000000E+00
  0.00000000E+00  0.00000000E+00  0.00000000E+00
  0.00000000E+00  0.00000000E+00  0.00000000E+00
  0.00000000E+00  0.00000000E+00  0.00000000E+00
  0.00000000E+00  0.00000000E+00  0.00000000E+00
  0.00000000E+00  0.00000000E+00  0.00000000E+00
  0.00000000E+00  0.00000000E+00  0.00000000E+00
  0.00000000E+00  0.00000000E+00  0.00000000E+00
  0.00000000E+00  0.00000000E+00  0.00000000E+00
  0.00000000E+00  0.00000000E+00  0.00000000E+00
  0.00000000E+00  0.00000000E+00  0.00000000E+00
  0.00000000E+00  0.00000000E+00  0.00000000E+00
  0.00000000E+00  0.00000000E+00  0.00000000E+00
  0.00000000E+00  0.00000000E+00  0.00000000E+00
  0.00000000E+00  0.00000000E+00  0.00000000E+00
  0.00000000E+00  0.00000000E+00  0.00000000E+00
  0.00000000E+00  0.00000000E+00  0.00000000E+00
  0.00000000E+00  0.00000000E+00  0.00000000E+00
  0.00000000E+00  0.00000000E+00  0.00000000E+00
  0.00000000E+00  0.00000000E+00  0.00000000E+00
  0.00000000E+00  0.00000000E+00  0.00000000E+00
  0.00000000E+00  0.00000000E+00  0.00000000E+00
  0.00000000E+00  0.00000000E+00  0.00000000E+00
  0.00000000E+00  0.00000000E+00  0.00000000E+00
  0.00000000E+00  0.00000000E+00  0.00000000E+00
  0.00000000E+00  0.00000000E+00  0.00000000E+00
  0.00000000E+00  0.00000000E+00  0.00000000E+00
  0.00000000E+00  0.00000000E+00  0.00000000E+00
  0.00000000E+00  0.00000000E+00  0.00000000E+00
  0.00000000E+00  0.00000000E+00  0.00000000E+00
  0.00000000E+00  0.00000000E+00  0.00000000E+00
  0.00000000E+00  0.00000000E+00  0.00000000E+00
