Na32 Nb32 O95                           
   1.00000000000000     
    11.1480910000000009    0.0000000000000000    0.0000000000000000
     0.0000000000000000   11.3660429999999995    0.0000000000000000
     0.0000000000000000    0.0000000000000000   15.5949340000000003
   Na   Nb   O 
    32    32    95
Direct
  0.1277384095719663  0.1259515504415576  0.0011779319357710
  0.1281848718579504  0.6265262474629831  0.9992619405238001
  0.6301435270448571  0.1252881880302588  0.0018343147534799
  0.6291350085848657  0.6242523384585759  0.0001824223720696
  0.3648817780287173  0.3707211531040902  0.4924117241239587
  0.3748444895776895  0.8867800530786731  0.4965707411935544
  0.8751965581086809  0.3783532609335582  0.4969987621465650
  0.8682991893832859  0.8833579907089966  0.4947289031136276
  0.3711864603214658  0.3748736618078170  0.0005017470254981
  0.3707515189690255  0.8754624505225116  0.0007075665034559
  0.8697413127545083  0.3758082803005500  0.0007452179838868
  0.8702920874793757  0.8758083808117045  0.0003929857288014
  0.1287111802402670  0.1310163677008216  0.4933623915180067
  0.1379785866741665  0.6209897472417305  0.4942422148912396
  0.6264730951920776  0.1189974140344737  0.4963204858523685
  0.6262534689068442  0.6262041765405529  0.5024404524160682
  0.1302646874893622  0.0989883163887202  0.2492913086070684
  0.1307680179892670  0.6011305157544250  0.2501777983367136
  0.6292345063739757  0.0994468363475250  0.2491607165873702
  0.6308047267339090  0.5982566524874954  0.2496533253706117
  0.1281453544057655  0.1528550257417555  0.7545992084097379
  0.1291531824506264  0.6491248143865841  0.7546508244622732
  0.6267810257075864  0.1377714449390825  0.7614780285184224
  0.6279034401994605  0.6489767498826097  0.7483171728556666
  0.3705130175558050  0.3503911691550731  0.2489650411788502
  0.3694943467630131  0.8507099863895250  0.2496375956847890
  0.8692299512382263  0.3497242434647050  0.2485421549681162
  0.8695634755109242  0.8502080395496924  0.2498374559262560
  0.3675926538597233  0.3964545994144740  0.7576736503498205
  0.3738815286555041  0.9036067730566778  0.7549284902735757
  0.8814787162732529  0.3950486339251418  0.7588522380681045
  0.8676979137777816  0.9008209136791924  0.7531986880172715
  0.1212717274113944  0.3608494152629264  0.1251810846502675
  0.1215724991694541  0.8604521383849111  0.1251612304423233
  0.6211333130803307  0.3596940362555573  0.1252693128159534
  0.6212914425545414  0.8600383769340225  0.1261462501316410
  0.1219901127475994  0.3884362230194994  0.8754939902065484
  0.1219921825953781  0.8873488802632238  0.8740487165590513
  0.6208887309517839  0.3864127616645722  0.8742385342179605
  0.6222846139257227  0.8868849561342972  0.8758804413054193
  0.3767873928499959  0.1114560003080652  0.3733699305657680
  0.3826020435478087  0.6097388421253443  0.3747827878847390
  0.8772503444351200  0.1121610701792793  0.3736120706628372
  0.8770453010948125  0.6101272079794631  0.3749573035554294
  0.3697011091336135  0.1397133774226053  0.6258125197466049
  0.3752675445374904  0.6525125122882864  0.6278700215702318
  0.8857434550421788  0.1364144716395147  0.6237092058841111
  0.8885705182608322  0.6469587795267365  0.6218121383364819
  0.3774556049190460  0.1378150720257477  0.8761386315357680
  0.3782351697263645  0.6367426515935277  0.8744685205673705
  0.8785270984566127  0.1379513409151505  0.8757625727344164
  0.8753492104293105  0.6368945117452801  0.8743113549637730
  0.3779672590866279  0.1103269004347090  0.1249686150994367
  0.3783974559197785  0.6109819165372894  0.1249132119234066
  0.8784255240117487  0.1100636781003280  0.1255322302132910
  0.8785298675084150  0.6109870043699045  0.1255312494900199
  0.1225732478870016  0.3928237975952373  0.6256059808341597
  0.1217873386402535  0.8953882310197672  0.6250353281675679
  0.6342918945537473  0.3586412397965910  0.6264126806493794
  0.6224591636557684  0.8955726566827594  0.6254578151074182
  0.1204655742095114  0.3625328142457609  0.3737883388755320
  0.1208691813824617  0.8603230274031918  0.3760162922466327
  0.6230151534069448  0.3585559379296832  0.3747222960709759
  0.6212724105835277  0.8604830086228058  0.3756326212095807
  0.0174870876307830  0.0208584941590831  0.3949469353648708
  0.0203506790116259  0.5230180607895895  0.3936456063343475
  0.5170507460079344  0.0205044931974327  0.3928458667893283
  0.5244850959823900  0.5210371818859837  0.3920373642760350
  0.0253160895756263  0.2255116798221228  0.6068370192401512
  0.0292629335293998  0.7290564146788030  0.6035611310440969
  0.5084871660523863  0.2439961486511626  0.5989630325221348
  0.5145891016160405  0.7408013093256894  0.6053474479138068
  0.4787373962832128  0.2716096206995066  0.1060028991730115
  0.4783022278184327  0.7728866946358390  0.1076502981108588
  0.9790431211079483  0.2728162714181834  0.1069143126391856
  0.9785316485040544  0.7732813186334700  0.1070056950205650
  0.4767959043015734  0.4736288149585421  0.8899515482425107
  0.4785666382232110  0.9748761726905549  0.8911550130898650
  0.9775293201043511  0.4753885826956588  0.8908373265017064
  0.9797432254279981  0.9750265038543205  0.8919846462069534
  0.6172957888207472  0.5187759195554636  0.6293072689832531
  0.4810195437984720  0.9863796697541702  0.6071418924708694
  0.9771419790000889  0.4785178775907187  0.6092267654096718
  0.9753254941266178  0.9794607681804907  0.6052608301965910
  0.4796172993326305  0.2713560864632297  0.3924695923907894
  0.4796886204991533  0.7705744522986302  0.3965023495782308
  0.9797023464026422  0.2722673133976021  0.3928350622880609
  0.9797795121125061  0.7712307431688955  0.3974284644109948
  0.0216640781095583  0.2257584823495379  0.8926023401868225
  0.0206377722863356  0.7226397283649888  0.8863600426020642
  0.5201596137870275  0.2232389959997682  0.8953643301600741
  0.5214461191268980  0.7243532096167347  0.8902753605171582
  0.0215323011144270  0.0218268606979644  0.1075373248924739
  0.0208265192948267  0.5238236542033650  0.1065740505570436
  0.5203266088259987  0.0222301106964667  0.1070538494060430
  0.5203296383699363  0.5231448787499001  0.1067458392418082
  0.2284093334600863  0.2347380173678212  0.3570896407201982
  0.2297944637297625  0.7316924392676541  0.3648132932121560
  0.7290932776491531  0.2311599619361061  0.3521773513011817
  0.7293678068510048  0.7328615390723031  0.3591764604396409
  0.2244194831095025  0.0256380769172558  0.6462359109448522
  0.2310972639958645  0.5190042029337348  0.6438640989543770
  0.7260052844042773  0.0269612514065406  0.6442977958017256
  0.2719650565599782  0.4838293636688941  0.1435638693242884
  0.2705981757170525  0.9826560550851712  0.1438642495308716
  0.7720847362312603  0.4833006048566486  0.1424882392146438
  0.7713594833768508  0.9828502509833250  0.1443681648006404
  0.2710661208769407  0.2656650700653508  0.8572596286936004
  0.2722057474628621  0.7640720028985348  0.8526082052111156
  0.7724449794155906  0.2653885836491578  0.8576963821924202
  0.7712111710011612  0.7660947612868761  0.8555716864664580
  0.2702100666740601  0.2711107834072852  0.6450471571753650
  0.2719480077747652  0.7773245733974197  0.6456286128156689
  0.7891444655610398  0.2864736786128395  0.6463956623043877
  0.7749658128151296  0.7694452024051465  0.6394462501271384
  0.2725410804972591  0.4840295096550326  0.3579579498301302
  0.2691497134515638  0.9841441587723733  0.3557822529411209
  0.7726781184316177  0.4817920168263380  0.3554936930911731
  0.7705171354256011  0.9836824613834035  0.3574625409674553
  0.2290350764451465  0.0141267584054501  0.8542986808434408
  0.2283362135139218  0.5162871701185268  0.8556912465228514
  0.7295815951308503  0.0147995525356483  0.8580413137692864
  0.7254556529474618  0.5149178825341842  0.8545297406379750
  0.2279738592085049  0.2335345035236445  0.1438084400037228
  0.2285053812708824  0.7330030811484601  0.1439571373726464
  0.7288789523855939  0.2324474539750058  0.1430667092991842
  0.7281027611848238  0.7326442930337762  0.1442353359875347
  0.3367113749812981  0.1221683506891735  0.9998456230466966
  0.3402042973977979  0.6256120147657610  0.9985354803925499
  0.8407262607873957  0.1227499588038431  0.0003049373115362
  0.8396295854678365  0.6253058827200759  0.9984038825155566
  0.1581436943334220  0.3770908271375080  0.5004721267911015
  0.1631081131078559  0.8821809791427053  0.5023301694600338
  0.6648714969515208  0.3640758762874626  0.4980733980578816
  0.6606221503105019  0.8814024567434724  0.5001075317498495
  0.1606358116093193  0.3760463799644810  0.0001004436304476
  0.1597066742184018  0.8705402644831135  0.9985620790591341
  0.6592050544190871  0.3746142600434441  0.9989656642271281
  0.6598404829730008  0.8727543477704700  0.0003034905473049
  0.3368777425971143  0.1245079552451294  0.5005433304362485
  0.3530381405969316  0.6056514701261803  0.5072867261320591
  0.8371394066661648  0.1308058316915254  0.5013731860076990
  0.8354636606316596  0.6138358418038943  0.5035646272865822
  0.0887194346224800  0.3908898898456528  0.2499786385442057
  0.0897658329276584  0.8844175992766503  0.2518228880599772
  0.5893573132145361  0.3881193629997017  0.2487118994512815
  0.5887838829194767  0.8875297056672824  0.2511191728241369
  0.0908276831093350  0.3612747678238423  0.7501040969717980
  0.0867620524615439  0.8621028779700255  0.7474393816603830
  0.5887081508084152  0.3447168774468637  0.7504798823194831
  0.5925837479485589  0.8633023667280751  0.7490381224602551
  0.4100850019161500  0.1389022698746055  0.2496885414714777
  0.4105593144307561  0.6383274512249427  0.2514040603663817
  0.9131859665118198  0.1377825928895251  0.2502583670051344
  0.9104337840633143  0.6387097526417107  0.2509128306006441
  0.4117196242873127  0.1150032273858873  0.7484434311628052
  0.4129469748270778  0.6047534044999167  0.7457433223882557
  0.9097111560226407  0.1123492694824282  0.7491229640063347
  0.8958156667400915  0.6048622983633082  0.7445677198760943
 
  0.00000000E+00  0.00000000E+00  0.00000000E+00
  0.00000000E+00  0.00000000E+00  0.00000000E+00
  0.00000000E+00  0.00000000E+00  0.00000000E+00
  0.00000000E+00  0.00000000E+00  0.00000000E+00
  0.00000000E+00  0.00000000E+00  0.00000000E+00
  0.00000000E+00  0.00000000E+00  0.00000000E+00
  0.00000000E+00  0.00000000E+00  0.00000000E+00
  0.00000000E+00  0.00000000E+00  0.00000000E+00
  0.00000000E+00  0.00000000E+00  0.00000000E+00
  0.00000000E+00  0.00000000E+00  0.00000000E+00
  0.00000000E+00  0.00000000E+00  0.00000000E+00
  0.00000000E+00  0.00000000E+00  0.00000000E+00
  0.00000000E+00  0.00000000E+00  0.00000000E+00
  0.00000000E+00  0.00000000E+00  0.00000000E+00
  0.00000000E+00  0.00000000E+00  0.00000000E+00
  0.00000000E+00  0.00000000E+00  0.00000000E+00
  0.00000000E+00  0.00000000E+00  0.00000000E+00
  0.00000000E+00  0.00000000E+00  0.00000000E+00
  0.00000000E+00  0.00000000E+00  0.00000000E+00
  0.00000000E+00  0.00000000E+00  0.00000000E+00
  0.00000000E+00  0.00000000E+00  0.00000000E+00
  0.00000000E+00  0.00000000E+00  0.00000000E+00
  0.00000000E+00  0.00000000E+00  0.00000000E+00
  0.00000000E+00  0.00000000E+00  0.00000000E+00
  0.00000000E+00  0.00000000E+00  0.00000000E+00
  0.00000000E+00  0.00000000E+00  0.00000000E+00
  0.00000000E+00  0.00000000E+00  0.00000000E+00
  0.00000000E+00  0.00000000E+00  0.00000000E+00
  0.00000000E+00  0.00000000E+00  0.00000000E+00
  0.00000000E+00  0.00000000E+00  0.00000000E+00
  0.00000000E+00  0.00000000E+00  0.00000000E+00
  0.00000000E+00  0.00000000E+00  0.00000000E+00
  0.00000000E+00  0.00000000E+00  0.00000000E+00
  0.00000000E+00  0.00000000E+00  0.00000000E+00
  0.00000000E+00  0.00000000E+00  0.00000000E+00
  0.00000000E+00  0.00000000E+00  0.00000000E+00
  0.00000000E+00  0.00000000E+00  0.00000000E+00
  0.00000000E+00  0.00000000E+00  0.00000000E+00
  0.00000000E+00  0.00000000E+00  0.00000000E+00
  0.00000000E+00  0.00000000E+00  0.00000000E+00
  0.00000000E+00  0.00000000E+00  0.00000000E+00
  0.00000000E+00  0.00000000E+00  0.00000000E+00
  0.00000000E+00  0.00000000E+00  0.00000000E+00
  0.00000000E+00  0.00000000E+00  0.00000000E+00
  0.00000000E+00  0.00000000E+00  0.00000000E+00
  0.00000000E+00  0.00000000E+00  0.00000000E+00
  0.00000000E+00  0.00000000E+00  0.00000000E+00
  0.00000000E+00  0.00000000E+00  0.00000000E+00
  0.00000000E+00  0.00000000E+00  0.00000000E+00
  0.00000000E+00  0.00000000E+00  0.00000000E+00
  0.00000000E+00  0.00000000E+00  0.00000000E+00
  0.00000000E+00  0.00000000E+00  0.00000000E+00
  0.00000000E+00  0.00000000E+00  0.00000000E+00
  0.00000000E+00  0.00000000E+00  0.00000000E+00
  0.00000000E+00  0.00000000E+00  0.00000000E+00
  0.00000000E+00  0.00000000E+00  0.00000000E+00
  0.00000000E+00  0.00000000E+00  0.00000000E+00
  0.00000000E+00  0.00000000E+00  0.00000000E+00
  0.00000000E+00  0.00000000E+00  0.00000000E+00
  0.00000000E+00  0.00000000E+00  0.00000000E+00
  0.00000000E+00  0.00000000E+00  0.00000000E+00
  0.00000000E+00  0.00000000E+00  0.00000000E+00
  0.00000000E+00  0.00000000E+00  0.00000000E+00
  0.00000000E+00  0.00000000E+00  0.00000000E+00
  0.00000000E+00  0.00000000E+00  0.00000000E+00
  0.00000000E+00  0.00000000E+00  0.00000000E+00
  0.00000000E+00  0.00000000E+00  0.00000000E+00
  0.00000000E+00  0.00000000E+00  0.00000000E+00
  0.00000000E+00  0.00000000E+00  0.00000000E+00
  0.00000000E+00  0.00000000E+00  0.00000000E+00
  0.00000000E+00  0.00000000E+00  0.00000000E+00
  0.00000000E+00  0.00000000E+00  0.00000000E+00
  0.00000000E+00  0.00000000E+00  0.00000000E+00
  0.00000000E+00  0.00000000E+00  0.00000000E+00
  0.00000000E+00  0.00000000E+00  0.00000000E+00
  0.00000000E+00  0.00000000E+00  0.00000000E+00
  0.00000000E+00  0.00000000E+00  0.00000000E+00
  0.00000000E+00  0.00000000E+00  0.00000000E+00
  0.00000000E+00  0.00000000E+00  0.00000000E+00
  0.00000000E+00  0.00000000E+00  0.00000000E+00
  0.00000000E+00  0.00000000E+00  0.00000000E+00
  0.00000000E+00  0.00000000E+00  0.00000000E+00
  0.00000000E+00  0.00000000E+00  0.00000000E+00
  0.00000000E+00  0.00000000E+00  0.00000000E+00
  0.00000000E+00  0.00000000E+00  0.00000000E+00
  0.00000000E+00  0.00000000E+00  0.00000000E+00
  0.00000000E+00  0.00000000E+00  0.00000000E+00
  0.00000000E+00  0.00000000E+00  0.00000000E+00
  0.00000000E+00  0.00000000E+00  0.00000000E+00
  0.00000000E+00  0.00000000E+00  0.00000000E+00
  0.00000000E+00  0.00000000E+00  0.00000000E+00
  0.00000000E+00  0.00000000E+00  0.00000000E+00
  0.00000000E+00  0.00000000E+00  0.00000000E+00
  0.00000000E+00  0.00000000E+00  0.00000000E+00
  0.00000000E+00  0.00000000E+00  0.00000000E+00
  0.00000000E+00  0.00000000E+00  0.00000000E+00
  0.00000000E+00  0.00000000E+00  0.00000000E+00
  0.00000000E+00  0.00000000E+00  0.00000000E+00
  0.00000000E+00  0.00000000E+00  0.00000000E+00
  0.00000000E+00  0.00000000E+00  0.00000000E+00
  0.00000000E+00  0.00000000E+00  0.00000000E+00
  0.00000000E+00  0.00000000E+00  0.00000000E+00
  0.00000000E+00  0.00000000E+00  0.00000000E+00
  0.00000000E+00  0.00000000E+00  0.00000000E+00
  0.00000000E+00  0.00000000E+00  0.00000000E+00
  0.00000000E+00  0.00000000E+00  0.00000000E+00
  0.00000000E+00  0.00000000E+00  0.00000000E+00
  0.00000000E+00  0.00000000E+00  0.00000000E+00
  0.00000000E+00  0.00000000E+00  0.00000000E+00
  0.00000000E+00  0.00000000E+00  0.00000000E+00
  0.00000000E+00  0.00000000E+00  0.00000000E+00
  0.00000000E+00  0.00000000E+00  0.00000000E+00
  0.00000000E+00  0.00000000E+00  0.00000000E+00
  0.00000000E+00  0.00000000E+00  0.00000000E+00
  0.00000000E+00  0.00000000E+00  0.00000000E+00
  0.00000000E+00  0.00000000E+00  0.00000000E+00
  0.00000000E+00  0.00000000E+00  0.00000000E+00
  0.00000000E+00  0.00000000E+00  0.00000000E+00
  0.00000000E+00  0.00000000E+00  0.00000000E+00
  0.00000000E+00  0.00000000E+00  0.00000000E+00
  0.00000000E+00  0.00000000E+00  0.00000000E+00
  0.00000000E+00  0.00000000E+00  0.00000000E+00
  0.00000000E+00  0.00000000E+00  0.00000000E+00
  0.00000000E+00  0.00000000E+00  0.00000000E+00
  0.00000000E+00  0.00000000E+00  0.00000000E+00
  0.00000000E+00  0.00000000E+00  0.00000000E+00
  0.00000000E+00  0.00000000E+00  0.00000000E+00
  0.00000000E+00  0.00000000E+00  0.00000000E+00
  0.00000000E+00  0.00000000E+00  0.00000000E+00
  0.00000000E+00  0.00000000E+00  0.00000000E+00
  0.00000000E+00  0.00000000E+00  0.00000000E+00
  0.00000000E+00  0.00000000E+00  0.00000000E+00
  0.00000000E+00  0.00000000E+00  0.00000000E+00
  0.00000000E+00  0.00000000E+00  0.00000000E+00
  0.00000000E+00  0.00000000E+00  0.00000000E+00
  0.00000000E+00  0.00000000E+00  0.00000000E+00
  0.00000000E+00  0.00000000E+00  0.00000000E+00
  0.00000000E+00  0.00000000E+00  0.00000000E+00
  0.00000000E+00  0.00000000E+00  0.00000000E+00
  0.00000000E+00  0.00000000E+00  0.00000000E+00
  0.00000000E+00  0.00000000E+00  0.00000000E+00
  0.00000000E+00  0.00000000E+00  0.00000000E+00
  0.00000000E+00  0.00000000E+00  0.00000000E+00
  0.00000000E+00  0.00000000E+00  0.00000000E+00
  0.00000000E+00  0.00000000E+00  0.00000000E+00
  0.00000000E+00  0.00000000E+00  0.00000000E+00
  0.00000000E+00  0.00000000E+00  0.00000000E+00
  0.00000000E+00  0.00000000E+00  0.00000000E+00
  0.00000000E+00  0.00000000E+00  0.00000000E+00
  0.00000000E+00  0.00000000E+00  0.00000000E+00
  0.00000000E+00  0.00000000E+00  0.00000000E+00
  0.00000000E+00  0.00000000E+00  0.00000000E+00
  0.00000000E+00  0.00000000E+00  0.00000000E+00
  0.00000000E+00  0.00000000E+00  0.00000000E+00
  0.00000000E+00  0.00000000E+00  0.00000000E+00
  0.00000000E+00  0.00000000E+00  0.00000000E+00
  0.00000000E+00  0.00000000E+00  0.00000000E+00
  0.00000000E+00  0.00000000E+00  0.00000000E+00
  0.00000000E+00  0.00000000E+00  0.00000000E+00
