Na32 Nb32 O95                           
   1.00000000000000     
    11.1480910000000009    0.0000000000000000    0.0000000000000000
     0.0000000000000000   11.3660429999999995    0.0000000000000000
     0.0000000000000000    0.0000000000000000   15.5949340000000003
   Na   Nb   O 
    32    32    95
Direct
  0.1286770121281088  0.1261691674286554  0.0011073065341951
  0.1281552295579514  0.6264256614960271  0.9991693557141657
  0.6290120031968961  0.1262029207766982  0.0008400981380173
  0.6294379361258373  0.6254517036108473  0.0011669912614108
  0.3665009275675300  0.3787931021114428  0.4963195239546155
  0.3734270118367609  0.8798190686712718  0.4974074530213393
  0.8757525795474405  0.3788931103973909  0.4976227183533238
  0.8677565330213775  0.8876885321654627  0.4953415531828304
  0.3704662900186281  0.3754444435315680  0.0004680366039140
  0.3701589929881332  0.8753568310913242  0.0005174420876823
  0.8703500711111964  0.3755160070431862  0.0004991269655334
  0.8706398686601259  0.8760995044744913  0.0001228110796187
  0.1261513523571061  0.1304616689208972  0.4935906807558432
  0.1384406499500594  0.6219285051872364  0.4938640636862127
  0.6289424386319441  0.1124134654793821  0.4956336604173563
  0.6232335968039603  0.6230507881620682  0.4998337261189751
  0.1295598671849258  0.0995696494680400  0.2490953972808123
  0.1305043460593706  0.6009988796840992  0.2496878864628592
  0.6294039093005909  0.0998274796270934  0.2494851857595163
  0.6297867570925558  0.5990851323099891  0.2497270979284547
  0.1246425117512099  0.1516279168144774  0.7548745983063505
  0.1354011736690226  0.6495596372803325  0.7537353365713875
  0.6281876589008715  0.1405778924623359  0.7591857029052479
  0.6250589194002483  0.6535431654510312  0.7546098190282483
  0.3696031003810251  0.3509837723825002  0.2491598295660014
  0.3692961334241343  0.8507671892509432  0.2495160363367704
  0.8692839076572704  0.3503596920054045  0.2486410652735403
  0.8687905105783276  0.8507950211334373  0.2493593281979382
  0.3686868501915742  0.4002814356573972  0.7550926405712314
  0.3735431872371052  0.8990212559398606  0.7540257719920929
  0.8790354854741652  0.3925512710668059  0.7569655214401982
  0.8677048271398624  0.9026091745268007  0.7522139423405938
  0.1210912067860564  0.3609711833016175  0.1252305958403825
  0.1212427003704337  0.8608432801127293  0.1249720629551111
  0.6209980080888780  0.3603915032874457  0.1259295360729905
  0.6211591711697745  0.8603693544884926  0.1259947383977049
  0.1219177000288867  0.3887768904009731  0.8753318902688674
  0.1222129952849057  0.8879951248904921  0.8737931907741461
  0.6219426412927678  0.3878114033169314  0.8756118165485007
  0.6220834710926131  0.8882938271210717  0.8763447473429007
  0.3767684013344068  0.1115231446376798  0.3731910504803682
  0.3803640948090374  0.6106284180481240  0.3742682171925054
  0.8773689681974212  0.1124503780788379  0.3731959092630696
  0.8768961798025451  0.6106829390761457  0.3747332071634062
  0.3625382230796471  0.1311714123179546  0.6262651756519010
  0.3822123055258299  0.6443267209503029  0.6260617418923415
  0.8800673382900674  0.1425106260696862  0.6242687993430590
  0.8915740017083386  0.6463674453063606  0.6215387835484246
  0.3778324081816608  0.1386300692979425  0.8747647175721580
  0.3783636232619157  0.6380234151291687  0.8752753539911698
  0.8784700100261441  0.1383315906070584  0.8754962072837505
  0.8757598169044315  0.6373473286790368  0.8741599093061562
  0.3780360774882334  0.1109307011116174  0.1247661479330375
  0.3780271301606646  0.6108051145331210  0.1251167827125994
  0.8779766500251667  0.1103929453151185  0.1250432937800259
  0.8783209257266965  0.6115041311837712  0.1254290752760447
  0.1232683532011045  0.3914476326567534  0.6255696284616575
  0.1205149326812165  0.8910347830108918  0.6241560201130129
  0.6143340893519321  0.3564420988860774  0.6211193522125049
  0.6219451420551410  0.8931379217340158  0.6257447641503537
  0.1206549049327791  0.3623282874751787  0.3738974170289145
  0.1198110273603941  0.8609450944601716  0.3754376342850459
  0.6223857045292508  0.3601766472923269  0.3755087669813132
  0.6211657813508651  0.8607322874612994  0.3754348860983088
  0.0178933192152743  0.0212141235048080  0.3939137488889557
  0.0194318335498065  0.5229623978414759  0.3944770844681972
  0.5172312535403361  0.0208401582902999  0.3920950715939543
  0.5223732101648746  0.5213147896150129  0.3914708074039479
  0.0246953784179130  0.2254833007727123  0.6074275646132329
  0.0328548004846954  0.7278026918618730  0.6027732231271735
  0.5174562306199458  0.2271258955761647  0.5986111330490073
  0.5218268522813776  0.7354338624282210  0.6064948237914627
  0.4787533508966924  0.2727894683381987  0.1063539593941652
  0.4786477373314559  0.7730878054712598  0.1069896016004314
  0.9787469656307869  0.2732688367960906  0.1068414500907255
  0.9781561497957857  0.7736422047330567  0.1072516085102433
  0.4771453628358113  0.4735830766756295  0.8904329689662356
  0.4785743204421825  0.9757162703925920  0.8921034219172220
  0.9772341126224900  0.4753320894137186  0.8902861727478121
  0.9793651761309354  0.9752762211501436  0.8914678238636816
  0.5226769654141729  0.4944693975958783  0.6124907612431454
  0.4792004160449561  0.9808596588582810  0.6076877515964710
  0.9779944490398322  0.4779722537836761  0.6096981742787566
  0.9786635336229164  0.9782006862930895  0.6072225660816946
  0.4806842695919577  0.2722020095380765  0.3960342167146747
  0.4798317755597346  0.7710430440946051  0.3953057550613730
  0.9798295094680228  0.2719948671392978  0.3934500869567007
  0.9792977372914350  0.7715458772156321  0.3989775282148652
  0.0218485731982384  0.2256253484050529  0.8927441340935371
  0.0210123887921190  0.7226583427413441  0.8859912005180715
  0.5213765545780659  0.2252118727860521  0.8918969353870618
  0.5218661672411505  0.7252435564728801  0.8922098870392918
  0.0213596941425510  0.0226881464708721  0.1077013458163210
  0.0206537273029985  0.5241865352130769  0.1069228396687753
  0.5205015537494760  0.0228824442080055  0.1072936206977784
  0.5207900788178469  0.5231451814642698  0.1076903576244899
  0.2286748903175271  0.2347927767310863  0.3571022531661707
  0.2284893435905078  0.7329253106662115  0.3621196851998312
  0.7287246998266300  0.2322305362739679  0.3554637564284399
  0.7296676968538965  0.7330171463820490  0.3596920002832164
  0.2250924796424795  0.0239448972619899  0.6482711761147397
  0.2329183297082544  0.5165687147792390  0.6434460036976885
  0.7275017698326629  0.0232804135648671  0.6443119345848258
  0.2715910353713574  0.4835426035892262  0.1442297302049816
  0.2708096947935963  0.9833995847950769  0.1436716607438853
  0.7718277927275911  0.4839162545583276  0.1431328119419243
  0.7714352116151878  0.9831623057097816  0.1445997960489150
  0.2716874625770794  0.2663573163606435  0.8565125617456134
  0.2723231214761817  0.7658689714818964  0.8553729502333793
  0.7729122851042322  0.2667338630287504  0.8584367670014007
  0.7720284934271440  0.7668114576758063  0.8555457788205861
  0.2750765073098883  0.2706912099710971  0.6438333863259541
  0.2769365365668395  0.7718889585904606  0.6429838658987796
  0.7821769411414765  0.2836168667235237  0.6426307234430816
  0.7757491855848685  0.7662019859458353  0.6401668280240195
  0.2711102408617320  0.4842381510935110  0.3570654775547802
  0.2693169049093517  0.9848391815597899  0.3554949525135003
  0.7721386030063960  0.4833462777220237  0.3547116194068097
  0.7701671583791648  0.9842706426135935  0.3567565378138903
  0.2288602762305492  0.0153845903415795  0.8543084804306136
  0.2277847800562467  0.5168853714238331  0.8563294608074229
  0.7288220565609483  0.0161971724573367  0.8578548046708732
  0.7249342017752359  0.5175767054133797  0.8565339228434110
  0.2277378600694710  0.2335636736288041  0.1437656230010796
  0.2280557322612891  0.7335984472793742  0.1438214576251211
  0.7284062700750118  0.2331199863772616  0.1435267643153552
  0.7281817965556212  0.7327891995116613  0.1443044001686534
  0.3388832470398556  0.1243078913500342  0.9995305591069052
  0.3393398895133330  0.6243617077904182  0.9997934896952969
  0.8398098886769281  0.1230890881206469  0.0004060657435869
  0.8404377977134843  0.6256915021608214  0.9985419478761243
  0.1584385877131318  0.3765767022869103  0.5005033546985647
  0.1638796259630735  0.8829872496845440  0.5017732860875979
  0.6696074823121770  0.3759034170110724  0.4997336984306173
  0.6602029998949860  0.8817939944353452  0.4999922126948395
  0.1601701655925584  0.3758041735495969  1.0000273330966019
  0.1587733834719999  0.8719715612259208  0.9988239126992259
  0.6597724194496818  0.3747872247160073  0.9995766557106402
  0.6609524076795691  0.8736570537759871  0.0004727714662109
  0.3365220772537852  0.1228520820925452  0.5010605352219252
  0.3474099493654441  0.6142468902265439  0.5031496014671124
  0.8387019553027276  0.1264278991166042  0.5013224321315782
  0.8327184013317206  0.6107823013696029  0.5058201397237420
  0.0878614785561494  0.3903568558224929  0.2501699158654826
  0.0885902963589385  0.8855154847230932  0.2516075033151849
  0.5894367277710748  0.3870604576634348  0.2502927972271058
  0.5888859517124940  0.8875459920241026  0.2508483203687368
  0.0916323270318281  0.3601168454064619  0.7498699887725657
  0.0894027302389686  0.8598491118347563  0.7478167582253293
  0.5978422681881322  0.3554878616773141  0.7477149431387921
  0.5923858700390486  0.8624860097254767  0.7498891761042709
  0.4106063138104598  0.1405225070273977  0.2499680211647304
  0.4100197189561239  0.6399496486456583  0.2507025261644718
  0.9119466901079032  0.1392477950608136  0.2502026656775098
  0.9109587135969033  0.6391048193021475  0.2514809304220857
  0.4133505223045378  0.1136873910903924  0.7484124413466091
  0.4108076488442735  0.6099492154875238  0.7495592395193682
  0.9084042241942122  0.1134599017976723  0.7493965269949642
  0.8927868109457245  0.6022716292984218  0.7438523260057186
 
  0.00000000E+00  0.00000000E+00  0.00000000E+00
  0.00000000E+00  0.00000000E+00  0.00000000E+00
  0.00000000E+00  0.00000000E+00  0.00000000E+00
  0.00000000E+00  0.00000000E+00  0.00000000E+00
  0.00000000E+00  0.00000000E+00  0.00000000E+00
  0.00000000E+00  0.00000000E+00  0.00000000E+00
  0.00000000E+00  0.00000000E+00  0.00000000E+00
  0.00000000E+00  0.00000000E+00  0.00000000E+00
  0.00000000E+00  0.00000000E+00  0.00000000E+00
  0.00000000E+00  0.00000000E+00  0.00000000E+00
  0.00000000E+00  0.00000000E+00  0.00000000E+00
  0.00000000E+00  0.00000000E+00  0.00000000E+00
  0.00000000E+00  0.00000000E+00  0.00000000E+00
  0.00000000E+00  0.00000000E+00  0.00000000E+00
  0.00000000E+00  0.00000000E+00  0.00000000E+00
  0.00000000E+00  0.00000000E+00  0.00000000E+00
  0.00000000E+00  0.00000000E+00  0.00000000E+00
  0.00000000E+00  0.00000000E+00  0.00000000E+00
  0.00000000E+00  0.00000000E+00  0.00000000E+00
  0.00000000E+00  0.00000000E+00  0.00000000E+00
  0.00000000E+00  0.00000000E+00  0.00000000E+00
  0.00000000E+00  0.00000000E+00  0.00000000E+00
  0.00000000E+00  0.00000000E+00  0.00000000E+00
  0.00000000E+00  0.00000000E+00  0.00000000E+00
  0.00000000E+00  0.00000000E+00  0.00000000E+00
  0.00000000E+00  0.00000000E+00  0.00000000E+00
  0.00000000E+00  0.00000000E+00  0.00000000E+00
  0.00000000E+00  0.00000000E+00  0.00000000E+00
  0.00000000E+00  0.00000000E+00  0.00000000E+00
  0.00000000E+00  0.00000000E+00  0.00000000E+00
  0.00000000E+00  0.00000000E+00  0.00000000E+00
  0.00000000E+00  0.00000000E+00  0.00000000E+00
  0.00000000E+00  0.00000000E+00  0.00000000E+00
  0.00000000E+00  0.00000000E+00  0.00000000E+00
  0.00000000E+00  0.00000000E+00  0.00000000E+00
  0.00000000E+00  0.00000000E+00  0.00000000E+00
  0.00000000E+00  0.00000000E+00  0.00000000E+00
  0.00000000E+00  0.00000000E+00  0.00000000E+00
  0.00000000E+00  0.00000000E+00  0.00000000E+00
  0.00000000E+00  0.00000000E+00  0.00000000E+00
  0.00000000E+00  0.00000000E+00  0.00000000E+00
  0.00000000E+00  0.00000000E+00  0.00000000E+00
  0.00000000E+00  0.00000000E+00  0.00000000E+00
  0.00000000E+00  0.00000000E+00  0.00000000E+00
  0.00000000E+00  0.00000000E+00  0.00000000E+00
  0.00000000E+00  0.00000000E+00  0.00000000E+00
  0.00000000E+00  0.00000000E+00  0.00000000E+00
  0.00000000E+00  0.00000000E+00  0.00000000E+00
  0.00000000E+00  0.00000000E+00  0.00000000E+00
  0.00000000E+00  0.00000000E+00  0.00000000E+00
  0.00000000E+00  0.00000000E+00  0.00000000E+00
  0.00000000E+00  0.00000000E+00  0.00000000E+00
  0.00000000E+00  0.00000000E+00  0.00000000E+00
  0.00000000E+00  0.00000000E+00  0.00000000E+00
  0.00000000E+00  0.00000000E+00  0.00000000E+00
  0.00000000E+00  0.00000000E+00  0.00000000E+00
  0.00000000E+00  0.00000000E+00  0.00000000E+00
  0.00000000E+00  0.00000000E+00  0.00000000E+00
  0.00000000E+00  0.00000000E+00  0.00000000E+00
  0.00000000E+00  0.00000000E+00  0.00000000E+00
  0.00000000E+00  0.00000000E+00  0.00000000E+00
  0.00000000E+00  0.00000000E+00  0.00000000E+00
  0.00000000E+00  0.00000000E+00  0.00000000E+00
  0.00000000E+00  0.00000000E+00  0.00000000E+00
  0.00000000E+00  0.00000000E+00  0.00000000E+00
  0.00000000E+00  0.00000000E+00  0.00000000E+00
  0.00000000E+00  0.00000000E+00  0.00000000E+00
  0.00000000E+00  0.00000000E+00  0.00000000E+00
  0.00000000E+00  0.00000000E+00  0.00000000E+00
  0.00000000E+00  0.00000000E+00  0.00000000E+00
  0.00000000E+00  0.00000000E+00  0.00000000E+00
  0.00000000E+00  0.00000000E+00  0.00000000E+00
  0.00000000E+00  0.00000000E+00  0.00000000E+00
  0.00000000E+00  0.00000000E+00  0.00000000E+00
  0.00000000E+00  0.00000000E+00  0.00000000E+00
  0.00000000E+00  0.00000000E+00  0.00000000E+00
  0.00000000E+00  0.00000000E+00  0.00000000E+00
  0.00000000E+00  0.00000000E+00  0.00000000E+00
  0.00000000E+00  0.00000000E+00  0.00000000E+00
  0.00000000E+00  0.00000000E+00  0.00000000E+00
  0.00000000E+00  0.00000000E+00  0.00000000E+00
  0.00000000E+00  0.00000000E+00  0.00000000E+00
  0.00000000E+00  0.00000000E+00  0.00000000E+00
  0.00000000E+00  0.00000000E+00  0.00000000E+00
  0.00000000E+00  0.00000000E+00  0.00000000E+00
  0.00000000E+00  0.00000000E+00  0.00000000E+00
  0.00000000E+00  0.00000000E+00  0.00000000E+00
  0.00000000E+00  0.00000000E+00  0.00000000E+00
  0.00000000E+00  0.00000000E+00  0.00000000E+00
  0.00000000E+00  0.00000000E+00  0.00000000E+00
  0.00000000E+00  0.00000000E+00  0.00000000E+00
  0.00000000E+00  0.00000000E+00  0.00000000E+00
  0.00000000E+00  0.00000000E+00  0.00000000E+00
  0.00000000E+00  0.00000000E+00  0.00000000E+00
  0.00000000E+00  0.00000000E+00  0.00000000E+00
  0.00000000E+00  0.00000000E+00  0.00000000E+00
  0.00000000E+00  0.00000000E+00  0.00000000E+00
  0.00000000E+00  0.00000000E+00  0.00000000E+00
  0.00000000E+00  0.00000000E+00  0.00000000E+00
  0.00000000E+00  0.00000000E+00  0.00000000E+00
  0.00000000E+00  0.00000000E+00  0.00000000E+00
  0.00000000E+00  0.00000000E+00  0.00000000E+00
  0.00000000E+00  0.00000000E+00  0.00000000E+00
  0.00000000E+00  0.00000000E+00  0.00000000E+00
  0.00000000E+00  0.00000000E+00  0.00000000E+00
  0.00000000E+00  0.00000000E+00  0.00000000E+00
  0.00000000E+00  0.00000000E+00  0.00000000E+00
  0.00000000E+00  0.00000000E+00  0.00000000E+00
  0.00000000E+00  0.00000000E+00  0.00000000E+00
  0.00000000E+00  0.00000000E+00  0.00000000E+00
  0.00000000E+00  0.00000000E+00  0.00000000E+00
  0.00000000E+00  0.00000000E+00  0.00000000E+00
  0.00000000E+00  0.00000000E+00  0.00000000E+00
  0.00000000E+00  0.00000000E+00  0.00000000E+00
  0.00000000E+00  0.00000000E+00  0.00000000E+00
  0.00000000E+00  0.00000000E+00  0.00000000E+00
  0.00000000E+00  0.00000000E+00  0.00000000E+00
  0.00000000E+00  0.00000000E+00  0.00000000E+00
  0.00000000E+00  0.00000000E+00  0.00000000E+00
  0.00000000E+00  0.00000000E+00  0.00000000E+00
  0.00000000E+00  0.00000000E+00  0.00000000E+00
  0.00000000E+00  0.00000000E+00  0.00000000E+00
  0.00000000E+00  0.00000000E+00  0.00000000E+00
  0.00000000E+00  0.00000000E+00  0.00000000E+00
  0.00000000E+00  0.00000000E+00  0.00000000E+00
  0.00000000E+00  0.00000000E+00  0.00000000E+00
  0.00000000E+00  0.00000000E+00  0.00000000E+00
  0.00000000E+00  0.00000000E+00  0.00000000E+00
  0.00000000E+00  0.00000000E+00  0.00000000E+00
  0.00000000E+00  0.00000000E+00  0.00000000E+00
  0.00000000E+00  0.00000000E+00  0.00000000E+00
  0.00000000E+00  0.00000000E+00  0.00000000E+00
  0.00000000E+00  0.00000000E+00  0.00000000E+00
  0.00000000E+00  0.00000000E+00  0.00000000E+00
  0.00000000E+00  0.00000000E+00  0.00000000E+00
  0.00000000E+00  0.00000000E+00  0.00000000E+00
  0.00000000E+00  0.00000000E+00  0.00000000E+00
  0.00000000E+00  0.00000000E+00  0.00000000E+00
  0.00000000E+00  0.00000000E+00  0.00000000E+00
  0.00000000E+00  0.00000000E+00  0.00000000E+00
  0.00000000E+00  0.00000000E+00  0.00000000E+00
  0.00000000E+00  0.00000000E+00  0.00000000E+00
  0.00000000E+00  0.00000000E+00  0.00000000E+00
  0.00000000E+00  0.00000000E+00  0.00000000E+00
  0.00000000E+00  0.00000000E+00  0.00000000E+00
  0.00000000E+00  0.00000000E+00  0.00000000E+00
  0.00000000E+00  0.00000000E+00  0.00000000E+00
  0.00000000E+00  0.00000000E+00  0.00000000E+00
  0.00000000E+00  0.00000000E+00  0.00000000E+00
  0.00000000E+00  0.00000000E+00  0.00000000E+00
  0.00000000E+00  0.00000000E+00  0.00000000E+00
  0.00000000E+00  0.00000000E+00  0.00000000E+00
  0.00000000E+00  0.00000000E+00  0.00000000E+00
  0.00000000E+00  0.00000000E+00  0.00000000E+00
  0.00000000E+00  0.00000000E+00  0.00000000E+00
  0.00000000E+00  0.00000000E+00  0.00000000E+00
  0.00000000E+00  0.00000000E+00  0.00000000E+00
  0.00000000E+00  0.00000000E+00  0.00000000E+00
  0.00000000E+00  0.00000000E+00  0.00000000E+00
