HSE run along symmetry lines
121
Reciprocal
0.0 0.0 0.0 1 
0.125 0.0 0.0 8 
0.25 0.0 0.0 8 
0.375 0.0 0.0 8 
0.5 0.0 0.0 4 
0.125 0.125 0.0 6 
0.25 0.125 0.0 24 
0.375 0.125 0.0 24 
0.5 0.125 0.0 24 
-0.375 0.125 0.0 24 
-0.25 0.125 0.0 24 
-0.125 0.125 0.0 12 
0.25 0.25 0.0 6 
0.375 0.25 0.0 24 
0.5 0.25 0.0 24 
-0.375 0.25 0.0 24 
-0.25 0.25 0.0 12 
0.375 0.375 0.0 6 
0.5 0.375 0.0 24 
-0.375 0.375 0.0 12 
0.5 0.5 0.0 3 
0.375 0.25 0.125 24 
0.5 0.25 0.125 48 
-0.375 0.25 0.125 24 
0.5 0.375 0.125 24 
-0.375 0.375 0.125 48 
-0.25 0.375 0.125 24 
-0.375 0.5 0.125 12 
-0.25 0.5 0.25 6 
0.0 0.0 0.0 0 \Gamma
0.04166666666666666 7.703719777548943e-34 0.041666666666666664 0 
0.08333333333333331 1.5407439555097887e-33 0.08333333333333333 0 
0.12499999999999999 3.0814879110195774e-33 0.125 0 
0.16666666666666663 3.0814879110195774e-33 0.16666666666666666 0 
0.20833333333333331 3.0814879110195774e-33 0.20833333333333334 0 
0.24999999999999997 6.162975822039155e-33 0.25 0 
0.2916666666666667 6.162975822039155e-33 0.2916666666666667 0 
0.33333333333333326 6.162975822039155e-33 0.3333333333333333 0 
0.37499999999999994 6.162975822039155e-33 0.375 0 
0.41666666666666663 6.162975822039155e-33 0.4166666666666667 0 
0.4583333333333333 1.232595164407831e-32 0.4583333333333333 0 
0.49999999999999994 1.232595164407831e-32 0.5 0 X
0.49999999999999994 1.232595164407831e-32 0.5 0 X
0.49999999999999994 0.04166666666666666 0.5416666666666667 0 
0.49999999999999994 0.0833333333333333 0.5833333333333334 0 
0.49999999999999994 0.12499999999999997 0.625 0 
0.49999999999999994 0.16666666666666666 0.6666666666666667 0 
0.49999999999999994 0.20833333333333331 0.7083333333333334 0 
0.49999999999999994 0.24999999999999997 0.75 0 W
0.49999999999999994 0.24999999999999997 0.75 0 W
0.4749999999999999 0.27499999999999997 0.75 0 
0.44999999999999996 0.3 0.75 0 
0.42499999999999993 0.32499999999999996 0.75 0 
0.3999999999999999 0.35 0.75 0 
0.37499999999999994 0.375 0.75 0 K
0.37499999999999994 0.375 0.75 0 K
0.3461538461538461 0.34615384615384615 0.6923076923076923 0 
0.31730769230769224 0.3173076923076923 0.6346153846153846 0 
0.2884615384615384 0.28846153846153844 0.5769230769230769 0 
0.2596153846153845 0.2596153846153846 0.5192307692307692 0 
0.23076923076923067 0.23076923076923075 0.4615384615384615 0 
0.20192307692307684 0.2019230769230769 0.4038461538461538 0 
0.17307692307692307 0.17307692307692307 0.3461538461538462 0 
0.1442307692307692 0.1442307692307692 0.28846153846153844 0 
0.11538461538461539 0.11538461538461538 0.2307692307692308 0 
0.0865384615384615 0.08653846153846154 0.17307692307692304 0 
0.057692307692307696 0.05769230769230767 0.11538461538461539 0 
0.0288461538461538 0.02884615384615381 0.05769230769230762 0 
0.0 0.0 0.0 0 \Gamma
0.0 0.0 0.0 0 \Gamma
0.04545454545454545 0.045454545454545456 0.045454545454545456 0 
0.0909090909090909 0.09090909090909091 0.09090909090909091 0 
0.13636363636363633 0.13636363636363635 0.13636363636363635 0 
0.1818181818181818 0.18181818181818182 0.18181818181818182 0 
0.22727272727272724 0.22727272727272727 0.22727272727272727 0 
0.27272727272727265 0.2727272727272727 0.2727272727272727 0 
0.3181818181818181 0.3181818181818182 0.3181818181818182 0 
0.3636363636363636 0.36363636363636365 0.36363636363636365 0 
0.40909090909090906 0.4090909090909091 0.4090909090909091 0 
0.4545454545454545 0.45454545454545453 0.45454545454545453 0 
0.49999999999999994 0.5 0.5 0 L
0.49999999999999994 0.5 0.5 0 L
0.515625 0.46875 0.515625 0 
0.5312499999999999 0.4375 0.53125 0 
0.546875 0.40625 0.546875 0 
0.5624999999999999 0.375 0.5625 0 
0.578125 0.34375 0.578125 0 
0.59375 0.3125 0.59375 0 
0.6093749999999999 0.28125 0.6093749999999999 0 
0.625 0.25 0.625 0 U
0.625 0.25 0.625 0 U
0.5999999999999999 0.24999999999999997 0.65 0 
0.575 0.24999999999999994 0.675 0 
0.5499999999999999 0.24999999999999994 0.7000000000000001 0 
0.5249999999999999 0.24999999999999994 0.7250000000000001 0 
0.49999999999999994 0.24999999999999997 0.75 0 W
0.49999999999999994 0.24999999999999997 0.75 0 W
0.49999999999999994 0.27777777777777773 0.7222222222222223 0 
0.49999999999999994 0.3055555555555555 0.6944444444444444 0 
0.49999999999999994 0.33333333333333326 0.6666666666666666 0 
0.4999999999999999 0.36111111111111105 0.6388888888888888 0 
0.49999999999999994 0.38888888888888884 0.611111111111111 0 
0.4999999999999999 0.41666666666666663 0.5833333333333333 0 
0.5 0.4444444444444444 0.5555555555555556 0 
0.4999999999999999 0.4722222222222222 0.5277777777777777 0 
0.49999999999999994 0.5 0.5 0 L
0.49999999999999994 0.5 0.5 0 L
0.4843749999999999 0.4843749999999999 0.53125 0 
0.4687499999999999 0.46875 0.5625 0 
0.45312499999999994 0.453125 0.59375 0 
0.4374999999999999 0.4375 0.625 0 
0.42187499999999994 0.421875 0.65625 0 
0.4062499999999999 0.40624999999999994 0.6875 0 
0.3906249999999999 0.39062499999999994 0.71875 0 
0.37499999999999994 0.375 0.75 0 K
0.625 0.25 0.625 0 U
0.5999999999999999 0.19999999999999996 0.6 0 
0.575 0.14999999999999997 0.575 0 
0.5499999999999999 0.09999999999999999 0.55 0 
0.5249999999999999 0.04999999999999999 0.525 0 
0.49999999999999994 1.232595164407831e-32 0.5 0 X
