#### Default PBE: system = NaNbO3
ALGO = Normal
AMIX = 0.2
EDIFF = 1e-06
EDIFFG = -0.05
ENCUT = 500
IBRION = 2
ISIF = 2
ISMEAR = 0
ISPIN = 1
ISYM = 2
LCHARG = .TRUE.
LOCPOT = .TRUE.
LORBIT = 10
LREAL = .FALSE.
LWAVE = .TRUE.
NELECT = 289.0
NSW = 0
SIGMA = 0.05
