Si55                                    
   1.00000000000000     
     9.9764655300000005    0.0000000000000000    5.7599150699999999
     3.3254885100000000    9.4059019199999998    5.7599150699999999
     0.0000000000000000    0.0000000000000000   11.5198301399999998
   Si
    55
Direct
  0.2916666666666643  0.2916666666666643  0.2916666666666643
  0.2916666666666643  0.2916666666666643  0.6250000000000000
  0.2916666666666643  0.2916666666666643  0.9583333333333357
  0.2916666666666643  0.6250000000000000  0.2916666666666643
  0.2916666666666643  0.6250000000000000  0.6250000000000000
  0.2916666666666643  0.6250000000000000  0.9583333333333357
  0.2916666666666643  0.9583333333333357  0.2916666666666643
  0.2916666666666643  0.9583333333333357  0.6250000000000000
  0.2916666666666643  0.9583333333333357  0.9583333333333357
  0.6250000000000000  0.2916666666666643  0.2916666666666643
  0.6250000000000000  0.2916666666666643  0.6250000000000000
  0.6250000000000000  0.2916666666666643  0.9583333333333357
  0.6250000000000000  0.6250000000000000  0.2916666666666643
  0.6250000000000000  0.6250000000000000  0.6250000000000000
  0.6250000000000000  0.6250000000000000  0.9583333333333357
  0.6250000000000000  0.9583333333333357  0.2916666666666643
  0.6250000000000000  0.9583333333333357  0.6250000000000000
  0.6250000000000000  0.9583333333333357  0.9583333333333357
  0.9583333333333357  0.2916666666666643  0.2916666666666643
  0.9583333333333357  0.2916666666666643  0.6250000000000000
  0.9583333333333357  0.2916666666666643  0.9583333333333357
  0.9583333333333357  0.6250000000000000  0.2916666666666643
  0.9583333333333357  0.6250000000000000  0.6250000000000000
  0.9583333333333357  0.6250000000000000  0.9583333333333357
  0.9583333333333357  0.9583333333333357  0.2916666666666643
  0.9583333333333357  0.9583333333333357  0.6250000000000000
  0.9583333333333357  0.9583333333333357  0.9583333333333357
  0.0416666666666643  0.0416666666666643  0.0416666666666643
  0.0416666666666643  0.0416666666666643  0.3750000000000000
  0.0416666666666643  0.0416666666666643  0.7083333333333357
  0.0416666666666643  0.3750000000000000  0.0416666666666643
  0.0416666666666643  0.3750000000000000  0.3750000000000000
  0.0416666666666643  0.3750000000000000  0.7083333333333357
  0.0416666666666643  0.7083333333333357  0.0416666666666643
  0.0416666666666643  0.7083333333333357  0.3750000000000000
  0.0416666666666643  0.7083333333333357  0.7083333333333357
  0.3750000000000000  0.0416666666666643  0.0416666666666643
  0.3750000000000000  0.0416666666666643  0.3750000000000000
  0.3750000000000000  0.0416666666666643  0.7083333333333357
  0.3750000000000000  0.3750000000000000  0.0416666666666643
  0.3750000000000000  0.3750000000000000  0.3750000000000000
  0.3750000000000000  0.3750000000000000  0.7083333333333357
  0.3750000000000000  0.7083333333333357  0.0416666666666643
  0.3750000000000000  0.7083333333333357  0.3750000000000000
  0.3750000000000000  0.7083333333333357  0.7083333333333357
  0.7083333333333357  0.0416666666666643  0.0416666666666643
  0.7083333333333357  0.0416666666666643  0.3750000000000000
  0.7083333333333357  0.0416666666666643  0.7083333333333357
  0.7083333333333357  0.3750000000000000  0.0416666666666643
  0.7083333333333357  0.3750000000000000  0.3750000000000000
  0.7083333333333357  0.3750000000000000  0.7083333333333357
  0.7083333333333357  0.7083333333333357  0.0416666666666643
  0.7083333333333357  0.7083333333333357  0.3750000000000000
  0.7083333333333357  0.7083333333333357  0.7083333333333357
  0.5416666669116523  0.5416666665505545  0.5416666666022323
 
  0.00000000E+00  0.00000000E+00  0.00000000E+00
  0.00000000E+00  0.00000000E+00  0.00000000E+00
  0.00000000E+00  0.00000000E+00  0.00000000E+00
  0.00000000E+00  0.00000000E+00  0.00000000E+00
  0.00000000E+00  0.00000000E+00  0.00000000E+00
  0.00000000E+00  0.00000000E+00  0.00000000E+00
  0.00000000E+00  0.00000000E+00  0.00000000E+00
  0.00000000E+00  0.00000000E+00  0.00000000E+00
  0.00000000E+00  0.00000000E+00  0.00000000E+00
  0.00000000E+00  0.00000000E+00  0.00000000E+00
  0.00000000E+00  0.00000000E+00  0.00000000E+00
  0.00000000E+00  0.00000000E+00  0.00000000E+00
  0.00000000E+00  0.00000000E+00  0.00000000E+00
  0.00000000E+00  0.00000000E+00  0.00000000E+00
  0.00000000E+00  0.00000000E+00  0.00000000E+00
  0.00000000E+00  0.00000000E+00  0.00000000E+00
  0.00000000E+00  0.00000000E+00  0.00000000E+00
  0.00000000E+00  0.00000000E+00  0.00000000E+00
  0.00000000E+00  0.00000000E+00  0.00000000E+00
  0.00000000E+00  0.00000000E+00  0.00000000E+00
  0.00000000E+00  0.00000000E+00  0.00000000E+00
  0.00000000E+00  0.00000000E+00  0.00000000E+00
  0.00000000E+00  0.00000000E+00  0.00000000E+00
  0.00000000E+00  0.00000000E+00  0.00000000E+00
  0.00000000E+00  0.00000000E+00  0.00000000E+00
  0.00000000E+00  0.00000000E+00  0.00000000E+00
  0.00000000E+00  0.00000000E+00  0.00000000E+00
  0.00000000E+00  0.00000000E+00  0.00000000E+00
  0.00000000E+00  0.00000000E+00  0.00000000E+00
  0.00000000E+00  0.00000000E+00  0.00000000E+00
  0.00000000E+00  0.00000000E+00  0.00000000E+00
  0.00000000E+00  0.00000000E+00  0.00000000E+00
  0.00000000E+00  0.00000000E+00  0.00000000E+00
  0.00000000E+00  0.00000000E+00  0.00000000E+00
  0.00000000E+00  0.00000000E+00  0.00000000E+00
  0.00000000E+00  0.00000000E+00  0.00000000E+00
  0.00000000E+00  0.00000000E+00  0.00000000E+00
  0.00000000E+00  0.00000000E+00  0.00000000E+00
  0.00000000E+00  0.00000000E+00  0.00000000E+00
  0.00000000E+00  0.00000000E+00  0.00000000E+00
  0.00000000E+00  0.00000000E+00  0.00000000E+00
  0.00000000E+00  0.00000000E+00  0.00000000E+00
  0.00000000E+00  0.00000000E+00  0.00000000E+00
  0.00000000E+00  0.00000000E+00  0.00000000E+00
  0.00000000E+00  0.00000000E+00  0.00000000E+00
  0.00000000E+00  0.00000000E+00  0.00000000E+00
  0.00000000E+00  0.00000000E+00  0.00000000E+00
  0.00000000E+00  0.00000000E+00  0.00000000E+00
  0.00000000E+00  0.00000000E+00  0.00000000E+00
  0.00000000E+00  0.00000000E+00  0.00000000E+00
  0.00000000E+00  0.00000000E+00  0.00000000E+00
  0.00000000E+00  0.00000000E+00  0.00000000E+00
  0.00000000E+00  0.00000000E+00  0.00000000E+00
  0.00000000E+00  0.00000000E+00  0.00000000E+00
  0.00000000E+00  0.00000000E+00  0.00000000E+00
