Si53
1.0
   9.9764655300000005    0.0000000000000000    5.7599150699999999
   3.3254885100000000    9.4059019199999998    5.7599150699999999
   0.0000000000000000    0.0000000000000000   11.5198301399999998
Si
53
direct
   0.2916666666666666    0.2916666666666667    0.6250000000000000 Si
   0.2916666666666666    0.2916666666666667    0.9583333333333333 Si
   0.2916666666666665    0.6250000000000000    0.2916666666666667 Si
   0.2916666666666665    0.6250000000000000    0.6250000000000000 Si
   0.2916666666666665    0.6250000000000000    0.9583333333333335 Si
   0.2916666666666666    0.9583333333333331    0.2916666666666666 Si
   0.2916666666666666    0.9583333333333331    0.6250000000000000 Si
   0.2916666666666666    0.9583333333333331    0.9583333333333335 Si
   0.6250000000000000    0.2916666666666667    0.2916666666666666 Si
   0.6250000000000000    0.2916666666666667    0.6249999999999999 Si
   0.6250000000000000    0.2916666666666667    0.9583333333333334 Si
   0.6249999999999998    0.6250000000000000    0.2916666666666666 Si
   0.6249999999999998    0.6250000000000000    0.6250000000000000 Si
   0.6249999999999998    0.6250000000000000    0.9583333333333335 Si
   0.6249999999999999    0.9583333333333331    0.2916666666666666 Si
   0.6249999999999999    0.9583333333333331    0.6250000000000001 Si
   0.6249999999999999    0.9583333333333331    0.9583333333333331 Si
   0.9583333333333334    0.2916666666666667    0.2916666666666666 Si
   0.9583333333333334    0.2916666666666667    0.6250000000000000 Si
   0.9583333333333334    0.2916666666666667    0.9583333333333335 Si
   0.9583333333333331    0.6250000000000000    0.2916666666666666 Si
   0.9583333333333331    0.6250000000000000    0.6250000000000001 Si
   0.9583333333333331    0.6250000000000000    0.9583333333333331 Si
   0.9583333333333333    0.9583333333333331    0.2916666666666667 Si
   0.9583333333333333    0.9583333333333331    0.6250000000000002 Si
   0.9583333333333333    0.9583333333333331    0.9583333333333333 Si
   0.0416666666666667    0.0416666666666667    0.0416666666666667 Si
   0.0416666666666667    0.0416666666666667    0.3749999999999999 Si
   0.0416666666666667    0.0416666666666667    0.7083333333333334 Si
   0.0416666666666667    0.3750000000000000    0.0416666666666666 Si
   0.0416666666666667    0.3750000000000000    0.3750000000000000 Si
   0.0416666666666667    0.3750000000000000    0.7083333333333333 Si
   0.0416666666666667    0.7083333333333333    0.0416666666666666 Si
   0.0416666666666667    0.7083333333333333    0.3750000000000000 Si
   0.0416666666666667    0.7083333333333333    0.7083333333333335 Si
   0.3749999999999999    0.0416666666666667    0.0416666666666667 Si
   0.3749999999999999    0.0416666666666667    0.3750000000000001 Si
   0.3749999999999999    0.0416666666666667    0.7083333333333333 Si
   0.3750000000000000    0.3750000000000000    0.0416666666666666 Si
   0.3750000000000000    0.3750000000000000    0.3750000000000000 Si
   0.3750000000000000    0.3750000000000000    0.7083333333333335 Si
   0.3750000000000000    0.7083333333333333    0.0416666666666667 Si
   0.3750000000000000    0.7083333333333333    0.3750000000000000 Si
   0.3750000000000000    0.7083333333333333    0.7083333333333334 Si
   0.7083333333333334    0.0416666666666667    0.0416666666666666 Si
   0.7083333333333334    0.0416666666666667    0.3750000000000000 Si
   0.7083333333333334    0.0416666666666667    0.7083333333333335 Si
   0.7083333333333331    0.3750000000000000    0.0416666666666667 Si
   0.7083333333333331    0.3750000000000000    0.3750000000000000 Si
   0.7083333333333331    0.3750000000000000    0.7083333333333334 Si
   0.7083333333333333    0.7083333333333333    0.0416666666666667 Si
   0.7083333333333333    0.7083333333333333    0.3750000000000002 Si
   0.7083333333333333    0.7083333333333333    0.7083333333333335 Si
