#### Default PBE: system = Si
ALGO = Normal
AMIX = 0.2
EDIFF = 1e-06
EDIFFG = -0.05
ENCUT = 550
IBRION = 2
ISIF = 2
ISMEAR = 0
ISPIN = 1
ISYM = 2
KPAR = 4
LCHARG = .TRUE.
LORBIT = 10
LREAL = .FALSE.
LWAVE = .TRUE.
NELECT = 215.0
NELM = 200
NSW = 0
SIGMA = 0.05
SYSTEM = Si
