Si2
1.0
   3.3254885100000000    0.0000000000000000    1.9199716899999999
   1.1084961700000000    3.1353006400000001    1.9199716899999999
   0.0000000000000000    0.0000000000000000    3.8399433799999998
Si
2
direct
   0.8750000000000000    0.8750000000000000    0.8750000000000000 Si
   0.1250000000000000    0.1250000000000000    0.1250000000000000 Si
