Na32 Nb32 O95                           
   1.00000000000000     
    11.1480910000000009    0.0000000000000000    0.0000000000000000
     0.0000000000000000   11.3660429999999995    0.0000000000000000
     0.0000000000000000    0.0000000000000000   15.5949340000000003
   Na   Nb   O 
    32    32    95
Direct
  0.1278668913693287  0.1261113766275554  0.0008672891544109
  0.1283181607850038  0.6264990868401711  0.9995803562173914
  0.6297291739693420  0.1252873770897519  0.0014769054891433
  0.6290498374716735  0.6248240270704475  0.9998320241137643
  0.3646909022405421  0.3697814913265989  0.4919138725642604
  0.3743093021670703  0.8889722551476721  0.4959029026704193
  0.8743517027129329  0.3779611013378903  0.4957595520269661
  0.8681255643906548  0.8773584617169026  0.4952164293308420
  0.3710450122564098  0.3745668103353003  0.0007248274206501
  0.3710812548816324  0.8755941821336183  0.0008294516442666
  0.8700010096697772  0.3762108139066183  0.0009601354168872
  0.8701112407958882  0.8755169680708386  0.0004640577548127
  0.1309644775379502  0.1308985962983566  0.4939402472267820
  0.1348077573159511  0.6217314159843975  0.4954556991533920
  0.6264675217513243  0.1207760570575149  0.4971032833858694
  0.6288918261943449  0.6257424712342049  0.5031366887613560
  0.1303899214846826  0.0991694229299224  0.2493734347554653
  0.1306477700406576  0.6010798448573580  0.2501862260043713
  0.6294913487893993  0.0995196492223928  0.2494580341819397
  0.6310291954689765  0.5987665320438390  0.2495752448700606
  0.1299208670514498  0.1527994827543639  0.7540083532553830
  0.1248057107216486  0.6488071009117209  0.7544061637419816
  0.6267151923997167  0.1396406085808015  0.7602875943833788
  0.6286376366324151  0.6498214690429414  0.7490360873535266
  0.3703419433416904  0.3502433842980669  0.2488175917874111
  0.3696599172289656  0.8508806000042033  0.2496262686027035
  0.8694906010740058  0.3497928438816768  0.2487952235841414
  0.8698554566435488  0.8500278863312666  0.2499810626933814
  0.3667939641640118  0.3952031827407259  0.7577904428917027
  0.3737887409848237  0.9052146482036745  0.7547822689525586
  0.8816407373751531  0.3970526451655997  0.7586477385613477
  0.8679169285279912  0.8989125158564233  0.7534917621374246
  0.1213456638537818  0.3608304033255466  0.1251675613372986
  0.1217347522356582  0.8603959996620628  0.1251599231758253
  0.6214904599417406  0.3599652319207959  0.1247825889581092
  0.6213406276942944  0.8601275190983572  0.1262253740305674
  0.1218891617695178  0.3883607047117240  0.8755349757781924
  0.1217560116436113  0.8875519625895035  0.8743561015074711
  0.6205139960349851  0.3870629006487701  0.8739516603146272
  0.6220999365494064  0.8869709655195662  0.8757752205163162
  0.3772730249183638  0.1117163067716701  0.3734458633847543
  0.3822739734881543  0.6100827769171285  0.3748347310494471
  0.8776138808841830  0.1116907156018315  0.3743265000933046
  0.8774740774833626  0.6101726708565786  0.3746592672112234
  0.3749530884952540  0.1436025187318038  0.6252883967253847
  0.3716614938704489  0.6528781884882967  0.6283729549514887
  0.8890640420428058  0.1300200073495998  0.6231686449723279
  0.8818671338584065  0.6440876410640378  0.6231268203927005
  0.3775161628884563  0.1377026449282110  0.8759247927267748
  0.3777815315921094  0.6363899451619593  0.8741411620705835
  0.8778624923771028  0.1381091800631442  0.8754810190922674
  0.8758567927617169  0.6374078041474012  0.8745965384629931
  0.3781442977159373  0.1103286722001459  0.1249658091742711
  0.3786112998318895  0.6112103204416136  0.1248729593035353
  0.8784706007363330  0.1102047502773800  0.1255378504796116
  0.8785703310768594  0.6108104167816348  0.1254332402475722
  0.1213445891448572  0.3925103860712383  0.6255078536017882
  0.1230986137777455  0.8943746112769489  0.6255736541221838
  0.6459566716149383  0.3640759387344314  0.6283365380926148
  0.6220794170104780  0.8947951795830925  0.6256328412615361
  0.1206247670158005  0.3624567775113609  0.3738292334243264
  0.1214004556561435  0.8603095464196183  0.3759055178632553
  0.6220558100556633  0.3597094956259836  0.3739446699024281
  0.6210713344378515  0.8602798559364528  0.3756117083494560
  0.0180177580630138  0.0211125311452789  0.3953512154094427
  0.0208202398728381  0.5229239951924941  0.3930814401344866
  0.5176685476809471  0.0209988607805411  0.3929838955263310
  0.5248189626491586  0.5224526759022542  0.3920753617288096
  0.0251173985872016  0.2242076144223235  0.6069712370082402
  0.0237870109202179  0.7269277665044752  0.6056190991653937
  0.5112157092108527  0.2454507459712775  0.6018418709924268
  0.5156984366406602  0.7344552387452101  0.6064651310375951
  0.4789833459793988  0.2719492476004078  0.1061478196333471
  0.4782077912370744  0.7728828948023957  0.1077267244478791
  0.9790925400447147  0.2726830705081522  0.1070406585847122
  0.9788513083902161  0.7732888960428691  0.1068183301019066
  0.4767723291073552  0.4738743527768843  0.8907493615391333
  0.4785164198307514  0.9750940377011926  0.8914470025328159
  0.9779188084111000  0.4756155934608908  0.8914786142518629
  0.9798194654488457  0.9754962890952572  0.8923723434289970
  0.6759189249110029  0.5239137780911713  0.6356213103262617
  0.4798777473249444  0.9846871748684041  0.6071634458165165
  0.9755401777485689  0.4764937008354821  0.6090044853664013
  0.9736064933685292  0.9769573158858517  0.6038430143344728
  0.4789977456772499  0.2720202895076195  0.3915266241547678
  0.4788742529720720  0.7710781456354775  0.3963632792914658
  0.9797712938465617  0.2723091576724688  0.3925258616166939
  0.9799612500891082  0.7715650611687280  0.3955086510499314
  0.0207254028723316  0.2261596371847706  0.8923612668160988
  0.0208704690461191  0.7235477818813575  0.8877645397600258
  0.5206233327938674  0.2237311097493584  0.8940153908893468
  0.5211281533936259  0.7240274241502542  0.8893090202301753
  0.0213592587832785  0.0220394025358724  0.1073747721096578
  0.0208495870452967  0.5234520087447982  0.1063869798685998
  0.5204801664988782  0.0223333151531204  0.1068400714412030
  0.5204392417388590  0.5232814423542489  0.1064407279750605
  0.2284017635836847  0.2345226155144071  0.3570281284549206
  0.2300384673209848  0.7313687020576118  0.3645160322307018
  0.7286758724714991  0.2324723714773929  0.3543297021548260
  0.7288783517265748  0.7330306455637318  0.3581192507056221
  0.2227662645764554  0.0251757754199971  0.6447756803144924
  0.2287865846025822  0.5202192482792557  0.6438810842490290
  0.7249306078117799  0.0262452316577737  0.6439688862999691
  0.2721488875316657  0.4839567949146615  0.1430070670421030
  0.2708760068367991  0.9827066685943305  0.1436177019594439
  0.7719299055372906  0.4830439863470207  0.1426338118934166
  0.7713958066802883  0.9828603808060240  0.1439802505734634
  0.2707118473240622  0.2653257670656602  0.8572713922325809
  0.2721658513002304  0.7634969886645784  0.8513693219964015
  0.7710756627235645  0.2649978125070638  0.8555570782435106
  0.7710441892454918  0.7661987901176546  0.8558032343903816
  0.2701490767004433  0.2711779715003423  0.6446081113714254
  0.2713698772166774  0.7795219580521484  0.6468942578657276
  0.7891722549441444  0.2817926146963821  0.6480635629645660
  0.7740189823246878  0.7713242796169235  0.6404479863149374
  0.2730696539896211  0.4837610472083793  0.3580492408862943
  0.2695514678020399  0.9840043314811047  0.3562948193775981
  0.7728070372399506  0.4813842499693140  0.3558727608823877
  0.7705306672329615  0.9837089512290856  0.3579028158713171
  0.2292090116305261  0.0141058627319886  0.8546080372629264
  0.2285097572523908  0.5160173781043785  0.8552599222105676
  0.7293569292421889  0.0147936261465340  0.8577222616466027
  0.7258480427858850  0.5149270284437223  0.8553581840192269
  0.2281710363644942  0.2335638183722624  0.1437998901284725
  0.2285903831920506  0.7328287631489754  0.1438509148530036
  0.7287131399067877  0.2326617030580606  0.1432415578662868
  0.7280290706202039  0.7327818803440030  0.1442116719962901
  0.3373220474034757  0.1228724673734292  0.9997704847269416
  0.3404383400702859  0.6263023440843225  0.9979269804754083
  0.8402583330048281  0.1237718040759375  1.0000189547535689
  0.8392960780707736  0.6252937616437250  0.9988648155630553
  0.1580023665817610  0.3767841925480422  0.5004841444179939
  0.1622251525408622  0.8792792522250853  0.5023463382618830
  0.6589489251870519  0.3688562192257694  0.4999306538312503
  0.6598350790122107  0.8794461733457325  0.5002565783797716
  0.1608304848691264  0.3756732403952789  0.9999926251413337
  0.1604901781332999  0.8707967252160036  0.9986052525629561
  0.6593404302068879  0.3741931263200226  0.9987917700954170
  0.6594190643615365  0.8724760804418261  0.0001477919753283
  0.3385409530491742  0.1256058466302594  0.5003582470921759
  0.3529044861718875  0.6042466160562631  0.5080374951215393
  0.8365790631773967  0.1319326858409068  0.5014022669147309
  0.8376599299818408  0.6185101548249189  0.5011900066009988
  0.0892846808831843  0.3908410658073492  0.2498540639959161
  0.0904715656444947  0.8851376740139303  0.2515101890650974
  0.5890389179982199  0.3885791787438845  0.2489530209043655
  0.5885940268455638  0.8879366059607727  0.2509978181000489
  0.0906388732703316  0.3612004713202293  0.7500872891006037
  0.0858868417757062  0.8627650361786930  0.7477047738898928
  0.5849060085231875  0.3521380682882494  0.7485926872380733
  0.5915000994055217  0.8632427571316834  0.7491180484628873
  0.4103402565829654  0.1386827028057874  0.2495956831734004
  0.4104949153689113  0.6378808550808681  0.2512970772460760
  0.9119364050676270  0.1377012087762652  0.2505076433393389
  0.9105768107633875  0.6389533114983835  0.2502825022888421
  0.4109597194485475  0.1144695439681321  0.7485124581388796
  0.4147143680189960  0.6011326732830290  0.7440842674724393
  0.9103373913132634  0.1104883727546730  0.7489580874806178
  0.8991781194682378  0.6062476375581812  0.7466666266983560
 
  0.00000000E+00  0.00000000E+00  0.00000000E+00
  0.00000000E+00  0.00000000E+00  0.00000000E+00
  0.00000000E+00  0.00000000E+00  0.00000000E+00
  0.00000000E+00  0.00000000E+00  0.00000000E+00
  0.00000000E+00  0.00000000E+00  0.00000000E+00
  0.00000000E+00  0.00000000E+00  0.00000000E+00
  0.00000000E+00  0.00000000E+00  0.00000000E+00
  0.00000000E+00  0.00000000E+00  0.00000000E+00
  0.00000000E+00  0.00000000E+00  0.00000000E+00
  0.00000000E+00  0.00000000E+00  0.00000000E+00
  0.00000000E+00  0.00000000E+00  0.00000000E+00
  0.00000000E+00  0.00000000E+00  0.00000000E+00
  0.00000000E+00  0.00000000E+00  0.00000000E+00
  0.00000000E+00  0.00000000E+00  0.00000000E+00
  0.00000000E+00  0.00000000E+00  0.00000000E+00
  0.00000000E+00  0.00000000E+00  0.00000000E+00
  0.00000000E+00  0.00000000E+00  0.00000000E+00
  0.00000000E+00  0.00000000E+00  0.00000000E+00
  0.00000000E+00  0.00000000E+00  0.00000000E+00
  0.00000000E+00  0.00000000E+00  0.00000000E+00
  0.00000000E+00  0.00000000E+00  0.00000000E+00
  0.00000000E+00  0.00000000E+00  0.00000000E+00
  0.00000000E+00  0.00000000E+00  0.00000000E+00
  0.00000000E+00  0.00000000E+00  0.00000000E+00
  0.00000000E+00  0.00000000E+00  0.00000000E+00
  0.00000000E+00  0.00000000E+00  0.00000000E+00
  0.00000000E+00  0.00000000E+00  0.00000000E+00
  0.00000000E+00  0.00000000E+00  0.00000000E+00
  0.00000000E+00  0.00000000E+00  0.00000000E+00
  0.00000000E+00  0.00000000E+00  0.00000000E+00
  0.00000000E+00  0.00000000E+00  0.00000000E+00
  0.00000000E+00  0.00000000E+00  0.00000000E+00
  0.00000000E+00  0.00000000E+00  0.00000000E+00
  0.00000000E+00  0.00000000E+00  0.00000000E+00
  0.00000000E+00  0.00000000E+00  0.00000000E+00
  0.00000000E+00  0.00000000E+00  0.00000000E+00
  0.00000000E+00  0.00000000E+00  0.00000000E+00
  0.00000000E+00  0.00000000E+00  0.00000000E+00
  0.00000000E+00  0.00000000E+00  0.00000000E+00
  0.00000000E+00  0.00000000E+00  0.00000000E+00
  0.00000000E+00  0.00000000E+00  0.00000000E+00
  0.00000000E+00  0.00000000E+00  0.00000000E+00
  0.00000000E+00  0.00000000E+00  0.00000000E+00
  0.00000000E+00  0.00000000E+00  0.00000000E+00
  0.00000000E+00  0.00000000E+00  0.00000000E+00
  0.00000000E+00  0.00000000E+00  0.00000000E+00
  0.00000000E+00  0.00000000E+00  0.00000000E+00
  0.00000000E+00  0.00000000E+00  0.00000000E+00
  0.00000000E+00  0.00000000E+00  0.00000000E+00
  0.00000000E+00  0.00000000E+00  0.00000000E+00
  0.00000000E+00  0.00000000E+00  0.00000000E+00
  0.00000000E+00  0.00000000E+00  0.00000000E+00
  0.00000000E+00  0.00000000E+00  0.00000000E+00
  0.00000000E+00  0.00000000E+00  0.00000000E+00
  0.00000000E+00  0.00000000E+00  0.00000000E+00
  0.00000000E+00  0.00000000E+00  0.00000000E+00
  0.00000000E+00  0.00000000E+00  0.00000000E+00
  0.00000000E+00  0.00000000E+00  0.00000000E+00
  0.00000000E+00  0.00000000E+00  0.00000000E+00
  0.00000000E+00  0.00000000E+00  0.00000000E+00
  0.00000000E+00  0.00000000E+00  0.00000000E+00
  0.00000000E+00  0.00000000E+00  0.00000000E+00
  0.00000000E+00  0.00000000E+00  0.00000000E+00
  0.00000000E+00  0.00000000E+00  0.00000000E+00
  0.00000000E+00  0.00000000E+00  0.00000000E+00
  0.00000000E+00  0.00000000E+00  0.00000000E+00
  0.00000000E+00  0.00000000E+00  0.00000000E+00
  0.00000000E+00  0.00000000E+00  0.00000000E+00
  0.00000000E+00  0.00000000E+00  0.00000000E+00
  0.00000000E+00  0.00000000E+00  0.00000000E+00
  0.00000000E+00  0.00000000E+00  0.00000000E+00
  0.00000000E+00  0.00000000E+00  0.00000000E+00
  0.00000000E+00  0.00000000E+00  0.00000000E+00
  0.00000000E+00  0.00000000E+00  0.00000000E+00
  0.00000000E+00  0.00000000E+00  0.00000000E+00
  0.00000000E+00  0.00000000E+00  0.00000000E+00
  0.00000000E+00  0.00000000E+00  0.00000000E+00
  0.00000000E+00  0.00000000E+00  0.00000000E+00
  0.00000000E+00  0.00000000E+00  0.00000000E+00
  0.00000000E+00  0.00000000E+00  0.00000000E+00
  0.00000000E+00  0.00000000E+00  0.00000000E+00
  0.00000000E+00  0.00000000E+00  0.00000000E+00
  0.00000000E+00  0.00000000E+00  0.00000000E+00
  0.00000000E+00  0.00000000E+00  0.00000000E+00
  0.00000000E+00  0.00000000E+00  0.00000000E+00
  0.00000000E+00  0.00000000E+00  0.00000000E+00
  0.00000000E+00  0.00000000E+00  0.00000000E+00
  0.00000000E+00  0.00000000E+00  0.00000000E+00
  0.00000000E+00  0.00000000E+00  0.00000000E+00
  0.00000000E+00  0.00000000E+00  0.00000000E+00
  0.00000000E+00  0.00000000E+00  0.00000000E+00
  0.00000000E+00  0.00000000E+00  0.00000000E+00
  0.00000000E+00  0.00000000E+00  0.00000000E+00
  0.00000000E+00  0.00000000E+00  0.00000000E+00
  0.00000000E+00  0.00000000E+00  0.00000000E+00
  0.00000000E+00  0.00000000E+00  0.00000000E+00
  0.00000000E+00  0.00000000E+00  0.00000000E+00
  0.00000000E+00  0.00000000E+00  0.00000000E+00
  0.00000000E+00  0.00000000E+00  0.00000000E+00
  0.00000000E+00  0.00000000E+00  0.00000000E+00
  0.00000000E+00  0.00000000E+00  0.00000000E+00
  0.00000000E+00  0.00000000E+00  0.00000000E+00
  0.00000000E+00  0.00000000E+00  0.00000000E+00
  0.00000000E+00  0.00000000E+00  0.00000000E+00
  0.00000000E+00  0.00000000E+00  0.00000000E+00
  0.00000000E+00  0.00000000E+00  0.00000000E+00
  0.00000000E+00  0.00000000E+00  0.00000000E+00
  0.00000000E+00  0.00000000E+00  0.00000000E+00
  0.00000000E+00  0.00000000E+00  0.00000000E+00
  0.00000000E+00  0.00000000E+00  0.00000000E+00
  0.00000000E+00  0.00000000E+00  0.00000000E+00
  0.00000000E+00  0.00000000E+00  0.00000000E+00
  0.00000000E+00  0.00000000E+00  0.00000000E+00
  0.00000000E+00  0.00000000E+00  0.00000000E+00
  0.00000000E+00  0.00000000E+00  0.00000000E+00
  0.00000000E+00  0.00000000E+00  0.00000000E+00
  0.00000000E+00  0.00000000E+00  0.00000000E+00
  0.00000000E+00  0.00000000E+00  0.00000000E+00
  0.00000000E+00  0.00000000E+00  0.00000000E+00
  0.00000000E+00  0.00000000E+00  0.00000000E+00
  0.00000000E+00  0.00000000E+00  0.00000000E+00
  0.00000000E+00  0.00000000E+00  0.00000000E+00
  0.00000000E+00  0.00000000E+00  0.00000000E+00
  0.00000000E+00  0.00000000E+00  0.00000000E+00
  0.00000000E+00  0.00000000E+00  0.00000000E+00
  0.00000000E+00  0.00000000E+00  0.00000000E+00
  0.00000000E+00  0.00000000E+00  0.00000000E+00
  0.00000000E+00  0.00000000E+00  0.00000000E+00
  0.00000000E+00  0.00000000E+00  0.00000000E+00
  0.00000000E+00  0.00000000E+00  0.00000000E+00
  0.00000000E+00  0.00000000E+00  0.00000000E+00
  0.00000000E+00  0.00000000E+00  0.00000000E+00
  0.00000000E+00  0.00000000E+00  0.00000000E+00
  0.00000000E+00  0.00000000E+00  0.00000000E+00
  0.00000000E+00  0.00000000E+00  0.00000000E+00
  0.00000000E+00  0.00000000E+00  0.00000000E+00
  0.00000000E+00  0.00000000E+00  0.00000000E+00
  0.00000000E+00  0.00000000E+00  0.00000000E+00
  0.00000000E+00  0.00000000E+00  0.00000000E+00
  0.00000000E+00  0.00000000E+00  0.00000000E+00
  0.00000000E+00  0.00000000E+00  0.00000000E+00
  0.00000000E+00  0.00000000E+00  0.00000000E+00
  0.00000000E+00  0.00000000E+00  0.00000000E+00
  0.00000000E+00  0.00000000E+00  0.00000000E+00
  0.00000000E+00  0.00000000E+00  0.00000000E+00
  0.00000000E+00  0.00000000E+00  0.00000000E+00
  0.00000000E+00  0.00000000E+00  0.00000000E+00
  0.00000000E+00  0.00000000E+00  0.00000000E+00
  0.00000000E+00  0.00000000E+00  0.00000000E+00
  0.00000000E+00  0.00000000E+00  0.00000000E+00
  0.00000000E+00  0.00000000E+00  0.00000000E+00
  0.00000000E+00  0.00000000E+00  0.00000000E+00
  0.00000000E+00  0.00000000E+00  0.00000000E+00
  0.00000000E+00  0.00000000E+00  0.00000000E+00
  0.00000000E+00  0.00000000E+00  0.00000000E+00
  0.00000000E+00  0.00000000E+00  0.00000000E+00
  0.00000000E+00  0.00000000E+00  0.00000000E+00
  0.00000000E+00  0.00000000E+00  0.00000000E+00
  0.00000000E+00  0.00000000E+00  0.00000000E+00
