Na32 Nb32 O95                           
   1.00000000000000     
    11.1480910000000009    0.0000000000000000    0.0000000000000000
     0.0000000000000000   11.3660429999999995    0.0000000000000000
     0.0000000000000000    0.0000000000000000   15.5949340000000003
   Na   Nb   O 
    32    32    95
Direct
  0.1282333354380694  0.1262612763108367  0.0006577630739780
  0.1282962851006258  0.6263771116627452 -0.0002540173513771
  0.6291551019624547  0.1255149668424793  0.0010052653077460
  0.6290626636338464  0.6252452150649206 -0.0000572022032776
  0.3644116162921098  0.3701396613013004  0.4919590581091305
  0.3738278922817632  0.8879163028736241  0.4955716466108446
  0.8737148262170694  0.3782409746537725  0.4953626328701536
  0.8677393759112922  0.8765452888817340  0.4953664438976350
  0.3709255838363875  0.3746492914273756  0.0008466167288680
  0.3710839013337658  0.8756274478974537  0.0008017561228609
  0.8701263244278965  0.3763953691033786  0.0009001440235547
  0.8702808199485496  0.8755106168081855  0.0003755095335098
  0.1312932811680382  0.1306408335738112  0.4941443211853571
  0.1341926205692399  0.6223066167887784  0.4953744223349044
  0.6270719130456207  0.1195037246253477  0.4972650677745971
  0.6296389912299156  0.6248594103380413  0.5025524573579903
  0.1302108064929920  0.0995979154596632  0.2492552878270246
  0.1305718050698157  0.6009883010003121  0.2499082585896729
  0.6297767270511411  0.0998369897238257  0.2495914691477486
  0.6306219580538573  0.5991492169777765  0.2495186820224475
  0.1298212927823972  0.1524310557591185  0.7540020793828589
  0.1251861543757544  0.6487808380171041  0.7546772724344750
  0.6268412127950118  0.1402726663075056  0.7593169357140557
  0.6283503807214743  0.6494444387361993  0.7494013662263204
  0.3702659595628257  0.3503924018505695  0.2487405317498946
  0.3697203286897192  0.8510382000884381  0.2494754232801228
  0.8693360521936334  0.3501472291982841  0.2489905013845619
  0.8697168261371345  0.8502368749176166  0.2497800992074768
  0.3662390932149550  0.3957202773579333  0.7577232496436291
  0.3737036224033142  0.9047088370400451  0.7548808742528751
  0.8817232370088931  0.3971355235072673  0.7582698455061643
  0.8679600787054293  0.8987326076467114  0.7535447032996859
  0.1213401386130656  0.3608484346340542  0.1251598825361015
  0.1217285321639635  0.8607481249195021  0.1250990555501612
  0.6216135720684456  0.3602332576320947  0.1245907527800903
  0.6214498148331231  0.8603257914053796  0.1260355429778030
  0.1219014913776696  0.3883766578364825  0.8755452952094583
  0.1216769266034322  0.8879179353639022  0.8744485346143772
  0.6203356326843871  0.3874090840149265  0.8737862058236009
  0.6220291326937025  0.8872080656873903  0.8757075183658345
  0.3775457834821646  0.1116865830830967  0.3733758390580370
  0.3816097125661541  0.6104574464565726  0.3746494855176104
  0.8776775961353804  0.1117505578529216  0.3743236698767272
  0.8776621189601113  0.6103832395418221  0.3745825953304083
  0.3754503199483867  0.1426572641026840  0.6252014544218238
  0.3716725333931473  0.6524564313819869  0.6283491864171572
  0.8890914086310060  0.1293817204828951  0.6231635774280475
  0.8821067392709482  0.6437329850941227  0.6233981796296527
  0.3776798092213122  0.1378961939638531  0.8756636756481879
  0.3777529884294331  0.6367116613675887  0.8743144986949591
  0.8774879739557566  0.1383902681007778  0.8753582364558570
  0.8760506684286753  0.6376115599630430  0.8746759388661792
  0.3783212315682216  0.1105708028777962  0.1248934977404489
  0.3785216096715594  0.6113252324972475  0.1248170987055063
  0.8782487817713973  0.1105408928173886  0.1253434206117700
  0.8785543434383805  0.6109719239375386  0.1254306911118833
  0.1215861461866828  0.3918309332121208  0.6254093477966144
  0.1232111221698133  0.8938913800974925  0.6255408074584061
  0.6459906159431383  0.3642034575451217  0.6283686648867520
  0.6219190946938304  0.8936361974683017  0.6256854039386630
  0.1206354423723089  0.3622688923129634  0.3737915206095780
  0.1212434764538647  0.8606483145125763  0.3756314658719169
  0.6214575439132823  0.3600911478337065  0.3738871655773381
  0.6209714405634801  0.8602594268972784  0.3754245322885639
  0.0182569005930064  0.0214082974477290  0.3953160161416889
  0.0207355699104326  0.5227645143163406  0.3931632220911066
  0.5180923456428287  0.0211641312311027  0.3928685591033553
  0.5241808164763964  0.5228960651652770  0.3917786540461793
  0.0252136731766517  0.2236819501565859  0.6072235340939981
  0.0243993379141243  0.7262986710479683  0.6060652731661365
  0.5132185303636556  0.2425197177453272  0.6024610166072232
  0.5165421714319136  0.7325182633113236  0.6065720629135861
  0.4789496999724151  0.2724046947697378  0.1063416403778687
  0.4783905438696649  0.7729733649935717  0.1075286328060012
  0.9789973624055920  0.2728620539123058  0.1070117941043811
  0.9789197302266563  0.7734989927066019  0.1068305522427926
  0.4769442451759232  0.4743720298716495  0.8913171554866447
  0.4786230474206462  0.9753267749356010  0.8918146143615354
  0.9780926958936003  0.4757178942194581  0.8915869104952562
  0.9796620856635159  0.9757822000254506  0.8923363020308984
  0.6768221597122400  0.5238657102425462  0.6362204071757198
  0.4792585949662667  0.9827017634735090  0.6073381900210716
  0.9759047580452657  0.4760049665545495  0.6090090419484684
  0.9736813471034161  0.9764001464414569  0.6038951732851913
  0.4785915438306672  0.2722860656346497  0.3917611257827796
  0.4784989275538379  0.7714381972854374  0.3957412722151994
  0.9797136916304101  0.2722343455395161  0.3926896085477565
  0.9798254080338671  0.7718486027632687  0.3953022297631882
  0.0204390131954057  0.2263052500828069  0.8922302847619606
  0.0209254843138134  0.7238941630729553  0.8882248633559598
  0.5207745512529351  0.2241003299046099  0.8935301066115839
  0.5210067065126875  0.7243127038030924  0.8897482576346509
  0.0211936350000898  0.0225720669744220  0.1072900416624532
  0.0208496532461235  0.5235093095116716  0.1064572744317017
  0.5206496143564994  0.0225683467069444  0.1067798920613403
  0.5205047456560280  0.5234891147248143  0.1065499161355442
  0.2284170945847402  0.2343795416625985  0.3569959245600038
  0.2296167733363977  0.7316454534999228  0.3636521875545467
  0.7286028461062801  0.2329790860420551  0.3554443430781490
  0.7288354877231915  0.7330612540343552  0.3579516552528050
  0.2227222087570594  0.0247311512378272  0.6446352253177714
  0.2300418837881367  0.5190416750766453  0.6436565620716935
  0.7248953775728399  0.0250634068666020  0.6438169555567135
  0.2720417043661988  0.4840049220445418  0.1429837155516262
  0.2710374137109840  0.9830246327865896  0.1435654657845473
  0.7718841204599165  0.4832681332578524  0.1428590268590331
  0.7714666761375991  0.9830354532547917  0.1438340782031872
  0.2708064428960729  0.2654180671384631  0.8570137085034897
  0.2721466110514197  0.7639138433055533  0.8518019592652237
  0.7709328915946311  0.2653352990529670  0.8549459639590898
  0.7713031540053910  0.7663631288582651  0.8558959145430679
  0.2711041338439071  0.2706417662467867  0.6442827144442415
  0.2720047068005216  0.7794934012730046  0.6470203919742328
  0.7887260008679813  0.2811895177533552  0.6480378407580978
  0.7744765646730561  0.7708901466947943  0.6409578990305371
  0.2726865136124997  0.4838160705923018  0.3579531876762322
  0.2697707265779293  0.9839794897409095  0.3563631591170247
  0.7725810698669803  0.4817917838573743  0.3562759816115591
  0.7704861164636204  0.9838317446993780  0.3580011689203205
  0.2290860622885373  0.0145156735359105  0.8547974068968297
  0.2284462882185127  0.5161179493048060  0.8554112233068832
  0.7290538660633603  0.0151167312331403  0.8574083360773624
  0.7259058810090055  0.5151811910136134  0.8555285428795695
  0.2281631563921309  0.2336456053293869  0.1438909375387553
  0.2284733408861958  0.7331775382464134  0.1437664352606648
  0.7286387644667504  0.2329154076336861  0.1434154875236132
  0.7281872039243907  0.7329764801247949  0.1442344502257455
  0.3378553920434864  0.1236483770522288  0.9997648479705366
  0.3400408200980902  0.6263898388243492  0.9981059738040082
  0.8396636967155132  0.1243728806169468  0.9998739660299399
  0.8393450717858373  0.6252679933519943  0.9989950671135335
  0.1581004603675827  0.3761391785241326  0.5004750120187375
  0.1621288104942041  0.8784383746950827  0.5022939180618642
  0.6573079060886916  0.3707637879988105  0.5002811760593978
  0.6595257725935572  0.8784176905660291  0.5002829213153598
  0.1608462680282032  0.3753196441134843  0.9999491245987584
  0.1605100341632355  0.8716983512057395  0.9987230531245656
  0.6594932366855594  0.3739704628478170  0.9988070338312958
  0.6597952903379953  0.8726521920928070  1.0000769789972630
  0.3389608350727994  0.1250542378230454  0.5003746251846927
  0.3517310294552002  0.6058354751851110  0.5075503768309318
  0.8366849529196441  0.1313440087640907  0.5015793478203802
  0.8383050075520018  0.6191217073173849  0.5013211189400216
  0.0891157525123108  0.3905893870639006  0.2498793051942873
  0.0902269346035849  0.8860081813144591  0.2513726603231928
  0.5891239865552492  0.3885827579472383  0.2491510581416957
  0.5887692520166626  0.8881121234086836  0.2508291868131606
  0.0909846249995226  0.3609953821142428  0.7500102475276839
  0.0862807898283643  0.8625735810339783  0.7478220276273881
  0.5838171399879526  0.3533287356033606  0.7485227832816028
  0.5911676533503847  0.8624321536046939  0.7493150343392940
  0.4106745958123276  0.1388895100715438  0.2496297308189526
  0.4100670523863342  0.6382328272418939  0.2510787261227587
  0.9112257337232645  0.1380291410364936  0.2505672417558802
  0.9108874043515285  0.6390437013060555  0.2503234528604716
  0.4109916737929600  0.1134295004277882  0.7486198789140469
  0.4142089765251289  0.6015571194865532  0.7445426136604752
  0.9101164729875455  0.1101067853851017  0.7489258558364759
  0.8999598897112926  0.6060013213671904  0.7469829734704683
 
  0.00000000E+00  0.00000000E+00  0.00000000E+00
  0.00000000E+00  0.00000000E+00  0.00000000E+00
  0.00000000E+00  0.00000000E+00  0.00000000E+00
  0.00000000E+00  0.00000000E+00  0.00000000E+00
  0.00000000E+00  0.00000000E+00  0.00000000E+00
  0.00000000E+00  0.00000000E+00  0.00000000E+00
  0.00000000E+00  0.00000000E+00  0.00000000E+00
  0.00000000E+00  0.00000000E+00  0.00000000E+00
  0.00000000E+00  0.00000000E+00  0.00000000E+00
  0.00000000E+00  0.00000000E+00  0.00000000E+00
  0.00000000E+00  0.00000000E+00  0.00000000E+00
  0.00000000E+00  0.00000000E+00  0.00000000E+00
  0.00000000E+00  0.00000000E+00  0.00000000E+00
  0.00000000E+00  0.00000000E+00  0.00000000E+00
  0.00000000E+00  0.00000000E+00  0.00000000E+00
  0.00000000E+00  0.00000000E+00  0.00000000E+00
  0.00000000E+00  0.00000000E+00  0.00000000E+00
  0.00000000E+00  0.00000000E+00  0.00000000E+00
  0.00000000E+00  0.00000000E+00  0.00000000E+00
  0.00000000E+00  0.00000000E+00  0.00000000E+00
  0.00000000E+00  0.00000000E+00  0.00000000E+00
  0.00000000E+00  0.00000000E+00  0.00000000E+00
  0.00000000E+00  0.00000000E+00  0.00000000E+00
  0.00000000E+00  0.00000000E+00  0.00000000E+00
  0.00000000E+00  0.00000000E+00  0.00000000E+00
  0.00000000E+00  0.00000000E+00  0.00000000E+00
  0.00000000E+00  0.00000000E+00  0.00000000E+00
  0.00000000E+00  0.00000000E+00  0.00000000E+00
  0.00000000E+00  0.00000000E+00  0.00000000E+00
  0.00000000E+00  0.00000000E+00  0.00000000E+00
  0.00000000E+00  0.00000000E+00  0.00000000E+00
  0.00000000E+00  0.00000000E+00  0.00000000E+00
  0.00000000E+00  0.00000000E+00  0.00000000E+00
  0.00000000E+00  0.00000000E+00  0.00000000E+00
  0.00000000E+00  0.00000000E+00  0.00000000E+00
  0.00000000E+00  0.00000000E+00  0.00000000E+00
  0.00000000E+00  0.00000000E+00  0.00000000E+00
  0.00000000E+00  0.00000000E+00  0.00000000E+00
  0.00000000E+00  0.00000000E+00  0.00000000E+00
  0.00000000E+00  0.00000000E+00  0.00000000E+00
  0.00000000E+00  0.00000000E+00  0.00000000E+00
  0.00000000E+00  0.00000000E+00  0.00000000E+00
  0.00000000E+00  0.00000000E+00  0.00000000E+00
  0.00000000E+00  0.00000000E+00  0.00000000E+00
  0.00000000E+00  0.00000000E+00  0.00000000E+00
  0.00000000E+00  0.00000000E+00  0.00000000E+00
  0.00000000E+00  0.00000000E+00  0.00000000E+00
  0.00000000E+00  0.00000000E+00  0.00000000E+00
  0.00000000E+00  0.00000000E+00  0.00000000E+00
  0.00000000E+00  0.00000000E+00  0.00000000E+00
  0.00000000E+00  0.00000000E+00  0.00000000E+00
  0.00000000E+00  0.00000000E+00  0.00000000E+00
  0.00000000E+00  0.00000000E+00  0.00000000E+00
  0.00000000E+00  0.00000000E+00  0.00000000E+00
  0.00000000E+00  0.00000000E+00  0.00000000E+00
  0.00000000E+00  0.00000000E+00  0.00000000E+00
  0.00000000E+00  0.00000000E+00  0.00000000E+00
  0.00000000E+00  0.00000000E+00  0.00000000E+00
  0.00000000E+00  0.00000000E+00  0.00000000E+00
  0.00000000E+00  0.00000000E+00  0.00000000E+00
  0.00000000E+00  0.00000000E+00  0.00000000E+00
  0.00000000E+00  0.00000000E+00  0.00000000E+00
  0.00000000E+00  0.00000000E+00  0.00000000E+00
  0.00000000E+00  0.00000000E+00  0.00000000E+00
  0.00000000E+00  0.00000000E+00  0.00000000E+00
  0.00000000E+00  0.00000000E+00  0.00000000E+00
  0.00000000E+00  0.00000000E+00  0.00000000E+00
  0.00000000E+00  0.00000000E+00  0.00000000E+00
  0.00000000E+00  0.00000000E+00  0.00000000E+00
  0.00000000E+00  0.00000000E+00  0.00000000E+00
  0.00000000E+00  0.00000000E+00  0.00000000E+00
  0.00000000E+00  0.00000000E+00  0.00000000E+00
  0.00000000E+00  0.00000000E+00  0.00000000E+00
  0.00000000E+00  0.00000000E+00  0.00000000E+00
  0.00000000E+00  0.00000000E+00  0.00000000E+00
  0.00000000E+00  0.00000000E+00  0.00000000E+00
  0.00000000E+00  0.00000000E+00  0.00000000E+00
  0.00000000E+00  0.00000000E+00  0.00000000E+00
  0.00000000E+00  0.00000000E+00  0.00000000E+00
  0.00000000E+00  0.00000000E+00  0.00000000E+00
  0.00000000E+00  0.00000000E+00  0.00000000E+00
  0.00000000E+00  0.00000000E+00  0.00000000E+00
  0.00000000E+00  0.00000000E+00  0.00000000E+00
  0.00000000E+00  0.00000000E+00  0.00000000E+00
  0.00000000E+00  0.00000000E+00  0.00000000E+00
  0.00000000E+00  0.00000000E+00  0.00000000E+00
  0.00000000E+00  0.00000000E+00  0.00000000E+00
  0.00000000E+00  0.00000000E+00  0.00000000E+00
  0.00000000E+00  0.00000000E+00  0.00000000E+00
  0.00000000E+00  0.00000000E+00  0.00000000E+00
  0.00000000E+00  0.00000000E+00  0.00000000E+00
  0.00000000E+00  0.00000000E+00  0.00000000E+00
  0.00000000E+00  0.00000000E+00  0.00000000E+00
  0.00000000E+00  0.00000000E+00  0.00000000E+00
  0.00000000E+00  0.00000000E+00  0.00000000E+00
  0.00000000E+00  0.00000000E+00  0.00000000E+00
  0.00000000E+00  0.00000000E+00  0.00000000E+00
  0.00000000E+00  0.00000000E+00  0.00000000E+00
  0.00000000E+00  0.00000000E+00  0.00000000E+00
  0.00000000E+00  0.00000000E+00  0.00000000E+00
  0.00000000E+00  0.00000000E+00  0.00000000E+00
  0.00000000E+00  0.00000000E+00  0.00000000E+00
  0.00000000E+00  0.00000000E+00  0.00000000E+00
  0.00000000E+00  0.00000000E+00  0.00000000E+00
  0.00000000E+00  0.00000000E+00  0.00000000E+00
  0.00000000E+00  0.00000000E+00  0.00000000E+00
  0.00000000E+00  0.00000000E+00  0.00000000E+00
  0.00000000E+00  0.00000000E+00  0.00000000E+00
  0.00000000E+00  0.00000000E+00  0.00000000E+00
  0.00000000E+00  0.00000000E+00  0.00000000E+00
  0.00000000E+00  0.00000000E+00  0.00000000E+00
  0.00000000E+00  0.00000000E+00  0.00000000E+00
  0.00000000E+00  0.00000000E+00  0.00000000E+00
  0.00000000E+00  0.00000000E+00  0.00000000E+00
  0.00000000E+00  0.00000000E+00  0.00000000E+00
  0.00000000E+00  0.00000000E+00  0.00000000E+00
  0.00000000E+00  0.00000000E+00  0.00000000E+00
  0.00000000E+00  0.00000000E+00  0.00000000E+00
  0.00000000E+00  0.00000000E+00  0.00000000E+00
  0.00000000E+00  0.00000000E+00  0.00000000E+00
  0.00000000E+00  0.00000000E+00  0.00000000E+00
  0.00000000E+00  0.00000000E+00  0.00000000E+00
  0.00000000E+00  0.00000000E+00  0.00000000E+00
  0.00000000E+00  0.00000000E+00  0.00000000E+00
  0.00000000E+00  0.00000000E+00  0.00000000E+00
  0.00000000E+00  0.00000000E+00  0.00000000E+00
  0.00000000E+00  0.00000000E+00  0.00000000E+00
  0.00000000E+00  0.00000000E+00  0.00000000E+00
  0.00000000E+00  0.00000000E+00  0.00000000E+00
  0.00000000E+00  0.00000000E+00  0.00000000E+00
  0.00000000E+00  0.00000000E+00  0.00000000E+00
  0.00000000E+00  0.00000000E+00  0.00000000E+00
  0.00000000E+00  0.00000000E+00  0.00000000E+00
  0.00000000E+00  0.00000000E+00  0.00000000E+00
  0.00000000E+00  0.00000000E+00  0.00000000E+00
  0.00000000E+00  0.00000000E+00  0.00000000E+00
  0.00000000E+00  0.00000000E+00  0.00000000E+00
  0.00000000E+00  0.00000000E+00  0.00000000E+00
  0.00000000E+00  0.00000000E+00  0.00000000E+00
  0.00000000E+00  0.00000000E+00  0.00000000E+00
  0.00000000E+00  0.00000000E+00  0.00000000E+00
  0.00000000E+00  0.00000000E+00  0.00000000E+00
  0.00000000E+00  0.00000000E+00  0.00000000E+00
  0.00000000E+00  0.00000000E+00  0.00000000E+00
  0.00000000E+00  0.00000000E+00  0.00000000E+00
  0.00000000E+00  0.00000000E+00  0.00000000E+00
  0.00000000E+00  0.00000000E+00  0.00000000E+00
  0.00000000E+00  0.00000000E+00  0.00000000E+00
  0.00000000E+00  0.00000000E+00  0.00000000E+00
  0.00000000E+00  0.00000000E+00  0.00000000E+00
  0.00000000E+00  0.00000000E+00  0.00000000E+00
  0.00000000E+00  0.00000000E+00  0.00000000E+00
  0.00000000E+00  0.00000000E+00  0.00000000E+00
  0.00000000E+00  0.00000000E+00  0.00000000E+00
  0.00000000E+00  0.00000000E+00  0.00000000E+00
  0.00000000E+00  0.00000000E+00  0.00000000E+00
  0.00000000E+00  0.00000000E+00  0.00000000E+00
  0.00000000E+00  0.00000000E+00  0.00000000E+00
  0.00000000E+00  0.00000000E+00  0.00000000E+00
