#### Default PBE: system = Si
ALGO = Normal
AMIX = 0.2
EDIFF = 1e-06
EDIFFG = -0.05
ENCUT = 500
IBRION = 2
ICHARG = 11
ISIF = 2
ISMEAR = 0
ISPIN = 1
ISTART = 1
ISYM = 2
LCHARG = .TRUE.
LORBIT = 11
LREAL = .FALSE.
LWAVE = .TRUE.
NEDOS = 2000
NSW = 0
SIGMA = 0.05
