Si2                                     
   1.00000000000000     
     3.3254890000000001    0.0000000000000000    1.9199720000000000
     1.1084959999999999    3.1353010000000001    1.9199720000000000
     0.0000000000000000    0.0000000000000000    3.8399429999999999
   Si
     2
Direct
  0.8750000000000000  0.8750000000000000  0.8750000000000000
  0.1250000000000000  0.1250000000000000  0.1250000000000000
 
  0.00000000E+00  0.00000000E+00  0.00000000E+00
  0.00000000E+00  0.00000000E+00  0.00000000E+00
