Na32 Nb32 O95                           
   1.00000000000000     
    11.1480910000000009    0.0000000000000000    0.0000000000000000
     0.0000000000000000   11.3660429999999995    0.0000000000000000
     0.0000000000000000    0.0000000000000000   15.5949340000000003
   Na   Nb   O 
    32    32    95
Direct
  0.1278670872987903  0.1259356069920070  0.0012770365682920
  0.1280789560126241  0.6264368195837730  0.9990747174132129
  0.6299828001138473  0.1253487115480440  0.0016696104674263
  0.6291406442379308  0.6245704894146041  0.0006732978943212
  0.3653735025730961  0.3730218711190909  0.4935560091474319
  0.3747394908812599  0.8838380999029063  0.4974025164226986
  0.8759347156139206  0.3789035647584391  0.4976672861166911
  0.8684203096706428  0.8866388268693151  0.4948946255276727
  0.3708534884599293  0.3751449634764924  0.0004107517991752
  0.3704753282627394  0.8753590248606101  0.0005965407260741
  0.8699668099453511  0.3754631565999554  0.0006728014234052
  0.8703447906451074  0.8760676123152588  0.0002662807024109
  0.1269004745398598  0.1308349323848326  0.4933051368357525
  0.1394521772975036  0.6209990343225202  0.4941175356148702
  0.6269461793224962  0.1167412930298497  0.4959491870104811
  0.6243154990606025  0.6248572544173748  0.5016836554283212
  0.1299531031159802  0.0989970735201321  0.2492309712542762
  0.1307500847927479  0.6010753263049601  0.2500893301569886
  0.6291668759645492  0.0994168820789309  0.2492018459752322
  0.6303997364782665  0.5983710887451069  0.2497453270086503
  0.1262216592356325  0.1524237579705943  0.7548081406401704
  0.1330884374464618  0.6493400675270016  0.7540813517326121
  0.6271777094947749  0.1383289297312534  0.7611598098762895
  0.6258387825670437  0.6493361001868457  0.7490363764718544
  0.3701823422948848  0.3505656399817894  0.2490887355954822
  0.3693678003191461  0.8505603446374929  0.2496332482685606
  0.8692466191829337  0.3497683660278623  0.2484745008818328
  0.8691691627354677  0.8504103968072149  0.2496808107443447
  0.3681371489719169  0.3981730021296681  0.7570187847022146
  0.3736440241399468  0.9012737703795139  0.7545968704859434
  0.8805957558471805  0.3936442994754534  0.7583494918081114
  0.8676859467595103  0.9021934457996504  0.7527412180278913
  0.1211626815929173  0.3608641175107023  0.1252157413439743
  0.1213478176931048  0.8604589806501546  0.1251256369544240
  0.6208771813487578  0.3597987707597187  0.1257921746329869
  0.6211747875039942  0.8600729942970935  0.1260784015260798
  0.1218851653857772  0.3885832180945562  0.8754288981140608
  0.1221856379586884  0.8874249799521012  0.8738822306462215
  0.6214798815723367  0.3867409527087780  0.8751328141663020
  0.6222417907890009  0.8872011949747811  0.8759686046990287
  0.3765601844236264  0.1113246230997289  0.3732624216349561
  0.3820847767789031  0.6097595700480497  0.3746066779596123
  0.8771672118333522  0.1123107888213660  0.3732971617871947
  0.8768765513783162  0.6102399478956411  0.3749327118627825
  0.3649845737616320  0.1348919616181314  0.6262551217677561
  0.3804921171818213  0.6487441912908185  0.6269539692962666
  0.8820986106375115  0.1416588266842707  0.6241339914484421
  0.8908862304314528  0.6471551329376151  0.6213538268671799
  0.3775384932592330  0.1380803151601381  0.8757451455366466
  0.3783728186008742  0.6373974835215908  0.8749580788953157
  0.8787027377711671  0.1379636956373635  0.8757265826603704
  0.8752213228927355  0.6369134033067124  0.8741378607856579
  0.3778227729439911  0.1104218681305723  0.1249064207137781
  0.3781747005120208  0.6107535152797559  0.1250352727349366
  0.8782767463967550  0.1100399665032090  0.1254018324910088
  0.8783534422758832  0.6111489848825903  0.1254798874947741
  0.1236569259506092  0.3924088053536027  0.6256303132447422
  0.1204108134235673  0.8935762456080651  0.6244444895052859
  0.6229297284900999  0.3576749040672753  0.6240160249326824
  0.6227396524390797  0.8954838984365774  0.6254142542213889
  0.1204698957308117  0.3624869218532981  0.3737925170975452
  0.1203842766383306  0.8603614032997473  0.3759316648420231
  0.6232551862546291  0.3588840428792636  0.3752819246934230
  0.6213115391531501  0.8605829321234478  0.3756555215451459
  0.0174161147811817  0.0207604014451243  0.3945237344169801
  0.0199581046082495  0.5230748338056065  0.3942094846971054
  0.5167971504524118  0.0204060487228690  0.3926061132727879
  0.5239932114432667  0.5207392089815125  0.3915070202827325
  0.0251662371793890  0.2260634314567269  0.6070368716625411
  0.0315320300750622  0.7293256529401188  0.6025302447968637
  0.5106952024793436  0.2383298537184602  0.5976751193473656
  0.5166876542363016  0.7425286355242940  0.6049547687401801
  0.4786908272591500  0.2718145426681829  0.1059677711844005
  0.4783831168757606  0.7729067908893353  0.1074708227428713
  0.9789068182772960  0.2729210509551199  0.1069124329257693
  0.9782340391099841  0.7733168732418909  0.1071168995225548
  0.4769173124617594  0.4734221871591012  0.8899197966305827
  0.4785389283664718  0.9750301314691033  0.8912470248552811
  0.9771589948884071  0.4752321461625312  0.8904302512831164
  0.9795717200811880  0.9749053249605468  0.8915515358889308
  0.5659728626090771  0.5107596336326865  0.6217246684803337
  0.4814204502744962  0.9862427554689048  0.6071420728065273
  0.9787460850548285  0.4793124930789787  0.6093967616564031
  0.9774712863990002  0.9800536743185503  0.6064124543369123
  0.4805003993954438  0.2712913754717354  0.3939976245436511
  0.4800721900135248  0.7705016114627499  0.3963751898910176
  0.9797509285300141  0.2721630750959895  0.3930704503630883
  0.9795679846026989  0.7711335401922712  0.3986079171620946
  0.0219999304457417  0.2255487403243578  0.8927357537426652
  0.0205818308573387  0.7223362847413383  0.8857410223188716
  0.5204268401305180  0.2238147474366285  0.8945954785564330
  0.5216744961355465  0.7248011052795728  0.8913370282601010
  0.0215241224926049  0.0219134517710835  0.1077194896504849
  0.0206631076822240  0.5240114332513011  0.1067035994116380
  0.5202385648041730  0.0223345552951563  0.1072325053752867
  0.5204204114232830  0.5229776471724439  0.1071435349189365
  0.2285378071382763  0.2348410466649943  0.3570267029722780
  0.2293765313549511  0.7320193516295901  0.3642304389850829
  0.7290633998981205  0.2311176587188713  0.3527056774918223
  0.7296328814037139  0.7328098406126905  0.3597780669546969
  0.2255054530715256  0.0245566800818450  0.6474925759904522
  0.2336126679422741  0.5171238542072060  0.6437276336214904
  0.7273309634022896  0.0263635616673675  0.6445239342247742
  0.2717534622122944  0.4835881275785818  0.1440264474425329
  0.2705241825371383  0.9827918785822413  0.1439238095313005
  0.7720004930714193  0.4835054626382360  0.1426637847329314
  0.7713047801304154  0.9829184541579771  0.1445859453386720
  0.2713554807784782  0.2659661486396961  0.8570986847678556
  0.2721430497567671  0.7649620390411231  0.8541558472801286
  0.7729477041528107  0.2659307034261385  0.8587735644929380
  0.7714589931044229  0.7663061829932770  0.8554568632325807
  0.2720867145182963  0.2708725757793547  0.6448608857458694
  0.2745787714514503  0.7733941772869375  0.6437851090401193
  0.7860874916292807  0.2875095026921394  0.6442209426333505
  0.7751259395946301  0.7677132130984311  0.6392794662458721
  0.2720420579907161  0.4840450956339490  0.3575245576203809
  0.2690301179433382  0.9843771092809461  0.3555382420268515
  0.7726380108140103  0.4822924768523196  0.3549642557622547
  0.7704283727010480  0.9838545789017049  0.3570123613081337
  0.2288960388094756  0.0145303667601883  0.8541002901551552
  0.2280162266487571  0.5165717763993860  0.8561862073619388
  0.7294165935609139  0.0151933420534899  0.8581069491066109
  0.7250197331410584  0.5158317963405876  0.8546591741753513
  0.2278127415798942  0.2334698714241075  0.1437932159193768
  0.2282602735368296  0.7331425144330128  0.1439876860815437
  0.7287098199249007  0.2325594104905520  0.1430989485318927
  0.7280944079123463  0.7325824743590390  0.1442492595944177
  0.3371656796438471  0.1224468249676202  0.9997511250698320
  0.3397446507305069  0.6249167626169876  0.9993174571648685
  0.8407042476501618  0.1223830366378605  0.0004467462106661
  0.8398252161451342  0.6253183646718733  0.9982598980275275
  0.1583949833405285  0.3769090594285671  0.5004157684917696
  0.1637845126233512  0.8833174308117728  0.5021043026630178
  0.6681251030888651  0.3679552662577168  0.4982267286945576
  0.6611176357181913  0.8827205070982199  0.4999766074840521
  0.1603000282802688  0.3760613882652143  0.0001518325550570
  0.1590679088669035  0.8708993854675356  0.9986509445962484
  0.6594970858053056  0.3750532563631158  0.9992328742458377
  0.6601885920551736  0.8731442116081610  0.0004169988069543
  0.3361269720307912  0.1239710410703267  0.5007533119906910
  0.3518241776304437  0.6079005438592728  0.5056111397601464
  0.8378207940724177  0.1292238505756383  0.5013653647309821
  0.8334311025024090  0.6109878255324901  0.5051075834898994
  0.0881892150227698  0.3908194373712852  0.2500683247717568
  0.0892104776768383  0.8843166731737591  0.2519058885553801
  0.5894485532835844  0.3875558739606796  0.2491747365384449
  0.5888663607036513  0.8873136052149490  0.2511397900194919
  0.0912162864752297  0.3609697931224628  0.7500429628752827
  0.0882012496872199  0.8608165210015242  0.7474380218104740
  0.5933638892170854  0.3466410712277290  0.7498610927257110
  0.5928995463432644  0.8631695271507178  0.7491677654956973
  0.4101562292506844  0.1395033360555604  0.2498029043300950
  0.4104263153809137  0.6390283152782844  0.2512130461650716
  0.9131734112483341  0.1382178346724463  0.2501878586935045
  0.9104905340749504  0.6387145771825120  0.2513030135255308
  0.4126801672571374  0.1149906469396730  0.7484391063745842
  0.4112579553662667  0.6081871317129773  0.7481252798932158
  0.9090201127040419  0.1137079717713470  0.7492118224995949
  0.8936011946998315  0.6035450281261964  0.7436397508202540
 
  0.00000000E+00  0.00000000E+00  0.00000000E+00
  0.00000000E+00  0.00000000E+00  0.00000000E+00
  0.00000000E+00  0.00000000E+00  0.00000000E+00
  0.00000000E+00  0.00000000E+00  0.00000000E+00
  0.00000000E+00  0.00000000E+00  0.00000000E+00
  0.00000000E+00  0.00000000E+00  0.00000000E+00
  0.00000000E+00  0.00000000E+00  0.00000000E+00
  0.00000000E+00  0.00000000E+00  0.00000000E+00
  0.00000000E+00  0.00000000E+00  0.00000000E+00
  0.00000000E+00  0.00000000E+00  0.00000000E+00
  0.00000000E+00  0.00000000E+00  0.00000000E+00
  0.00000000E+00  0.00000000E+00  0.00000000E+00
  0.00000000E+00  0.00000000E+00  0.00000000E+00
  0.00000000E+00  0.00000000E+00  0.00000000E+00
  0.00000000E+00  0.00000000E+00  0.00000000E+00
  0.00000000E+00  0.00000000E+00  0.00000000E+00
  0.00000000E+00  0.00000000E+00  0.00000000E+00
  0.00000000E+00  0.00000000E+00  0.00000000E+00
  0.00000000E+00  0.00000000E+00  0.00000000E+00
  0.00000000E+00  0.00000000E+00  0.00000000E+00
  0.00000000E+00  0.00000000E+00  0.00000000E+00
  0.00000000E+00  0.00000000E+00  0.00000000E+00
  0.00000000E+00  0.00000000E+00  0.00000000E+00
  0.00000000E+00  0.00000000E+00  0.00000000E+00
  0.00000000E+00  0.00000000E+00  0.00000000E+00
  0.00000000E+00  0.00000000E+00  0.00000000E+00
  0.00000000E+00  0.00000000E+00  0.00000000E+00
  0.00000000E+00  0.00000000E+00  0.00000000E+00
  0.00000000E+00  0.00000000E+00  0.00000000E+00
  0.00000000E+00  0.00000000E+00  0.00000000E+00
  0.00000000E+00  0.00000000E+00  0.00000000E+00
  0.00000000E+00  0.00000000E+00  0.00000000E+00
  0.00000000E+00  0.00000000E+00  0.00000000E+00
  0.00000000E+00  0.00000000E+00  0.00000000E+00
  0.00000000E+00  0.00000000E+00  0.00000000E+00
  0.00000000E+00  0.00000000E+00  0.00000000E+00
  0.00000000E+00  0.00000000E+00  0.00000000E+00
  0.00000000E+00  0.00000000E+00  0.00000000E+00
  0.00000000E+00  0.00000000E+00  0.00000000E+00
  0.00000000E+00  0.00000000E+00  0.00000000E+00
  0.00000000E+00  0.00000000E+00  0.00000000E+00
  0.00000000E+00  0.00000000E+00  0.00000000E+00
  0.00000000E+00  0.00000000E+00  0.00000000E+00
  0.00000000E+00  0.00000000E+00  0.00000000E+00
  0.00000000E+00  0.00000000E+00  0.00000000E+00
  0.00000000E+00  0.00000000E+00  0.00000000E+00
  0.00000000E+00  0.00000000E+00  0.00000000E+00
  0.00000000E+00  0.00000000E+00  0.00000000E+00
  0.00000000E+00  0.00000000E+00  0.00000000E+00
  0.00000000E+00  0.00000000E+00  0.00000000E+00
  0.00000000E+00  0.00000000E+00  0.00000000E+00
  0.00000000E+00  0.00000000E+00  0.00000000E+00
  0.00000000E+00  0.00000000E+00  0.00000000E+00
  0.00000000E+00  0.00000000E+00  0.00000000E+00
  0.00000000E+00  0.00000000E+00  0.00000000E+00
  0.00000000E+00  0.00000000E+00  0.00000000E+00
  0.00000000E+00  0.00000000E+00  0.00000000E+00
  0.00000000E+00  0.00000000E+00  0.00000000E+00
  0.00000000E+00  0.00000000E+00  0.00000000E+00
  0.00000000E+00  0.00000000E+00  0.00000000E+00
  0.00000000E+00  0.00000000E+00  0.00000000E+00
  0.00000000E+00  0.00000000E+00  0.00000000E+00
  0.00000000E+00  0.00000000E+00  0.00000000E+00
  0.00000000E+00  0.00000000E+00  0.00000000E+00
  0.00000000E+00  0.00000000E+00  0.00000000E+00
  0.00000000E+00  0.00000000E+00  0.00000000E+00
  0.00000000E+00  0.00000000E+00  0.00000000E+00
  0.00000000E+00  0.00000000E+00  0.00000000E+00
  0.00000000E+00  0.00000000E+00  0.00000000E+00
  0.00000000E+00  0.00000000E+00  0.00000000E+00
  0.00000000E+00  0.00000000E+00  0.00000000E+00
  0.00000000E+00  0.00000000E+00  0.00000000E+00
  0.00000000E+00  0.00000000E+00  0.00000000E+00
  0.00000000E+00  0.00000000E+00  0.00000000E+00
  0.00000000E+00  0.00000000E+00  0.00000000E+00
  0.00000000E+00  0.00000000E+00  0.00000000E+00
  0.00000000E+00  0.00000000E+00  0.00000000E+00
  0.00000000E+00  0.00000000E+00  0.00000000E+00
  0.00000000E+00  0.00000000E+00  0.00000000E+00
  0.00000000E+00  0.00000000E+00  0.00000000E+00
  0.00000000E+00  0.00000000E+00  0.00000000E+00
  0.00000000E+00  0.00000000E+00  0.00000000E+00
  0.00000000E+00  0.00000000E+00  0.00000000E+00
  0.00000000E+00  0.00000000E+00  0.00000000E+00
  0.00000000E+00  0.00000000E+00  0.00000000E+00
  0.00000000E+00  0.00000000E+00  0.00000000E+00
  0.00000000E+00  0.00000000E+00  0.00000000E+00
  0.00000000E+00  0.00000000E+00  0.00000000E+00
  0.00000000E+00  0.00000000E+00  0.00000000E+00
  0.00000000E+00  0.00000000E+00  0.00000000E+00
  0.00000000E+00  0.00000000E+00  0.00000000E+00
  0.00000000E+00  0.00000000E+00  0.00000000E+00
  0.00000000E+00  0.00000000E+00  0.00000000E+00
  0.00000000E+00  0.00000000E+00  0.00000000E+00
  0.00000000E+00  0.00000000E+00  0.00000000E+00
  0.00000000E+00  0.00000000E+00  0.00000000E+00
  0.00000000E+00  0.00000000E+00  0.00000000E+00
  0.00000000E+00  0.00000000E+00  0.00000000E+00
  0.00000000E+00  0.00000000E+00  0.00000000E+00
  0.00000000E+00  0.00000000E+00  0.00000000E+00
  0.00000000E+00  0.00000000E+00  0.00000000E+00
  0.00000000E+00  0.00000000E+00  0.00000000E+00
  0.00000000E+00  0.00000000E+00  0.00000000E+00
  0.00000000E+00  0.00000000E+00  0.00000000E+00
  0.00000000E+00  0.00000000E+00  0.00000000E+00
  0.00000000E+00  0.00000000E+00  0.00000000E+00
  0.00000000E+00  0.00000000E+00  0.00000000E+00
  0.00000000E+00  0.00000000E+00  0.00000000E+00
  0.00000000E+00  0.00000000E+00  0.00000000E+00
  0.00000000E+00  0.00000000E+00  0.00000000E+00
  0.00000000E+00  0.00000000E+00  0.00000000E+00
  0.00000000E+00  0.00000000E+00  0.00000000E+00
  0.00000000E+00  0.00000000E+00  0.00000000E+00
  0.00000000E+00  0.00000000E+00  0.00000000E+00
  0.00000000E+00  0.00000000E+00  0.00000000E+00
  0.00000000E+00  0.00000000E+00  0.00000000E+00
  0.00000000E+00  0.00000000E+00  0.00000000E+00
  0.00000000E+00  0.00000000E+00  0.00000000E+00
  0.00000000E+00  0.00000000E+00  0.00000000E+00
  0.00000000E+00  0.00000000E+00  0.00000000E+00
  0.00000000E+00  0.00000000E+00  0.00000000E+00
  0.00000000E+00  0.00000000E+00  0.00000000E+00
  0.00000000E+00  0.00000000E+00  0.00000000E+00
  0.00000000E+00  0.00000000E+00  0.00000000E+00
  0.00000000E+00  0.00000000E+00  0.00000000E+00
  0.00000000E+00  0.00000000E+00  0.00000000E+00
  0.00000000E+00  0.00000000E+00  0.00000000E+00
  0.00000000E+00  0.00000000E+00  0.00000000E+00
  0.00000000E+00  0.00000000E+00  0.00000000E+00
  0.00000000E+00  0.00000000E+00  0.00000000E+00
  0.00000000E+00  0.00000000E+00  0.00000000E+00
  0.00000000E+00  0.00000000E+00  0.00000000E+00
  0.00000000E+00  0.00000000E+00  0.00000000E+00
  0.00000000E+00  0.00000000E+00  0.00000000E+00
  0.00000000E+00  0.00000000E+00  0.00000000E+00
  0.00000000E+00  0.00000000E+00  0.00000000E+00
  0.00000000E+00  0.00000000E+00  0.00000000E+00
  0.00000000E+00  0.00000000E+00  0.00000000E+00
  0.00000000E+00  0.00000000E+00  0.00000000E+00
  0.00000000E+00  0.00000000E+00  0.00000000E+00
  0.00000000E+00  0.00000000E+00  0.00000000E+00
  0.00000000E+00  0.00000000E+00  0.00000000E+00
  0.00000000E+00  0.00000000E+00  0.00000000E+00
  0.00000000E+00  0.00000000E+00  0.00000000E+00
  0.00000000E+00  0.00000000E+00  0.00000000E+00
  0.00000000E+00  0.00000000E+00  0.00000000E+00
  0.00000000E+00  0.00000000E+00  0.00000000E+00
  0.00000000E+00  0.00000000E+00  0.00000000E+00
  0.00000000E+00  0.00000000E+00  0.00000000E+00
  0.00000000E+00  0.00000000E+00  0.00000000E+00
  0.00000000E+00  0.00000000E+00  0.00000000E+00
  0.00000000E+00  0.00000000E+00  0.00000000E+00
  0.00000000E+00  0.00000000E+00  0.00000000E+00
  0.00000000E+00  0.00000000E+00  0.00000000E+00
  0.00000000E+00  0.00000000E+00  0.00000000E+00
  0.00000000E+00  0.00000000E+00  0.00000000E+00
  0.00000000E+00  0.00000000E+00  0.00000000E+00
  0.00000000E+00  0.00000000E+00  0.00000000E+00
  0.00000000E+00  0.00000000E+00  0.00000000E+00
