Na32 Nb32 O95                           
   1.00000000000000     
    11.1480910000000009    0.0000000000000000    0.0000000000000000
     0.0000000000000000   11.3660429999999995    0.0000000000000000
     0.0000000000000000    0.0000000000000000   15.5949340000000003
   Na   Nb   O 
    32    32    95
Direct
  0.1282396800232876  0.1261336860827013  0.0010231475886397
  0.1280762565760808  0.6263983137499017  0.9992954741842281
  0.6293670217264274  0.1258158839202817  0.0011372267910778
  0.6291721076768977  0.6250112443091378  0.0006093567091185
  0.3646631389658534  0.3737658788890536  0.4933544464810394
  0.3741022766690465  0.8831924632406291  0.4968882959410519
  0.8753152610567332  0.3785529506767896  0.4969915571039955
  0.8678115894541647  0.8849022602585378  0.4950073251238522
  0.3708105836678748  0.3751419543964174  0.0005501962313970
  0.3705154833341323  0.8754214761726561  0.0006200687519386
  0.8700125830441727  0.3757009384891910  0.0005843649164504
  0.8704425303293408  0.8759626840048509  0.0002339102164086
  0.1276001945591166  0.1306835506117160  0.4934613378354613
  0.1384866808249776  0.6217152311020889  0.4940640822205206
  0.6277477385648185  0.1155494458993924  0.4961210927239904
  0.6251542185072685  0.6242287779931499  0.5014157591191160
  0.1297779764913062  0.0994996958768639  0.2491227484300582
  0.1306546854696755  0.6010374072676390  0.2498199900473803
  0.6294848937671148  0.0997799155358790  0.2493443423802925
  0.6300920032421150  0.5987308126998987  0.2496229230100489
  0.1263738226852244  0.1521160513218595  0.7547938832246560
  0.1323388978097134  0.6492296208360946  0.7543943542748284
  0.6274646043169625  0.1392224529545922  0.7601570064708214
  0.6256007212705493  0.6489533644282865  0.7495100954793081
  0.3700978440050091  0.3507883518605395  0.2489371651592399
  0.3694172614925423  0.8507819661740884  0.2494801751184426
  0.8690927805313194  0.3500678150899651  0.2486440675262495
  0.8691048117607478  0.8506119842418974  0.2494999800500969
  0.3678478758248306  0.3982605670624439  0.7569196897026688
  0.3735992692173716  0.9012738585938891  0.7546305289144827
  0.8806952966457247  0.3937541745809794  0.7580559609616795
  0.8676136909199059  0.9015393351055373  0.7528195524368708
  0.1211744249123442  0.3608849047068948  0.1251632553830463
  0.1214276948471292  0.8608402453227286  0.1250024245625123
  0.6211386251427244  0.3600352399041957  0.1254052101681642
  0.6212731935463539  0.8602850379476900  0.1259597604719163
  0.1218804365955619  0.3885518476922491  0.8754397706915117
  0.1221015152640034  0.8877543672572048  0.8739859636948478
  0.6212613772715613  0.3871029354475455  0.8747207777054138
  0.6220888978658855  0.8874888500625866  0.8759539537016434
  0.3769692167154750  0.1114737913463846  0.3731227749368955
  0.3815461092164933  0.6101724720020569  0.3744537675251954
  0.8772237922404070  0.1122517389958045  0.3733486156037829
  0.8770377180670491  0.6104799967704491  0.3747948056141422
  0.3658098761884091  0.1348596488119099  0.6260351871065021
  0.3798976471239962  0.6487367296164901  0.6271100158912037
  0.8826648039650287  0.1400125784228856  0.6241266799263777
  0.8909864284634741  0.6467140875561124  0.6217429998626322
  0.3776749138845014  0.1382581634769763  0.8754800419220590
  0.3782037678755508  0.6375350663543473  0.8749943129770236
  0.8783391806933976  0.1381799591944633  0.8756150951943039
  0.8754493466822419  0.6372187800510104  0.8743572872087315
  0.3780502552112692  0.1107364714004036  0.1247682211239702
  0.3781462114737792  0.6109377660837640  0.1249147588681012
  0.8780488000731215  0.1103524741165827  0.1252058845076172
  0.8783944964896925  0.6112916657696711  0.1255201819459648
  0.1232009282266337  0.3919490989903028  0.6255664484097794
  0.1208348906227514  0.8933664727231090  0.6245312942048823
  0.6244644290869427  0.3572326430770674  0.6238368912116551
  0.6221805560841924  0.8944195225973871  0.6255414988739649
  0.1204196812890471  0.3623613361862009  0.3737470497791875
  0.1202875061367227  0.8607462983306164  0.3756139832342548
  0.6226432492339676  0.3592025015951575  0.3749642645348740
  0.6211365152044380  0.8605637505163702  0.3754615199168056
  0.0177535015401329  0.0210825287620508  0.3945141943458267
  0.0198781678824164  0.5229865334530112  0.3940794888004300
  0.5173107321213175  0.0207197589723621  0.3924819828540624
  0.5234376741558725  0.5212096846625355  0.3915473043189526
  0.0253247207405817  0.2251173773479817  0.6072778731730785
  0.0317544426876954  0.7284701241267763  0.6033527659889261
  0.5127428576422645  0.2362708553137068  0.5987541035005057
  0.5171120151945872  0.7408563887997668  0.6052388976897894
  0.4786289734247112  0.2723264135177310  0.1062760952397676
  0.4785004063781854  0.7730185613968141  0.1073170550171882
  0.9788216402115588  0.2730959243635641  0.1068704748535493
  0.9784024757978764  0.7735689675648094  0.1071027240884249
  0.4770279161641435  0.4738690833883987  0.8905228205137458
  0.4785714420143595  0.9752818876275804  0.8916990473080648
  0.9774044176866075  0.4753982789201871  0.8906615821305397
  0.9794980009318971  0.9751462390836581  0.8917603332347221
  0.5702793174133721  0.5112600580956548  0.6226830119660910
  0.4803293027762863  0.9840871063196989  0.6074173130031681
  0.9777009951270003  0.4782187124973716  0.6094533173981840
  0.9770338626139021  0.9789661402493073  0.6062767352875037
  0.4799886894265107  0.2717919248355274  0.3942222893288402
  0.4794825479391878  0.7709249333840118  0.3957425440060376
  0.9796364809290593  0.2720568212961571  0.3930711680450675
  0.9794202636058105  0.7715068100968380  0.3980536980710793
  0.0216925762232160  0.2256639632464463  0.8925841817402069
  0.0207320939922023  0.7227664558156716  0.8863829188080620
  0.5205149777544665  0.2241404961505918  0.8940369100376286
  0.5214959806436255  0.7249116690429273  0.8913476602626135
  0.0213754186933011  0.0224411869237286  0.1075502305269396
  0.0207002237224554  0.5240232447744705  0.1067299169492708
  0.5204321615196326  0.0226552730070307  0.1070985233171183
  0.5205029778868659  0.5232723072546316  0.1072015268505068
  0.2285459109275685  0.2347748975924669  0.3571263581651303
  0.2290403570778705  0.7322765395111157  0.3634814680439878
  0.7289259315728591  0.2314448788037486  0.3536770820087803
  0.7294485065906896  0.7328936575930675  0.3593253462597528
  0.2250545857450086  0.0246876698149695  0.6470346111765836
  0.2331549075671415  0.5167970194006548  0.6434707469459816
  0.7269475249579377  0.0252031984584032  0.6442537290447032
  0.2716821843404750  0.4837136459074717  0.1438643826207541
  0.2707463083964910  0.9831583782573381  0.1437920892586082
  0.7719891750565216  0.4837205376702254  0.1428719195470807
  0.7713826729419361  0.9830273106077571  0.1443762230811438
  0.2713469526010427  0.2659967147760666  0.8567644412383187
  0.2721375524589318  0.7651556574120725  0.8541891857623353
  0.7729765220842835  0.2661967251804941  0.8580769858818479
  0.7717537644309213  0.7665733872810292  0.8555959333723927
  0.2727803599740847  0.2708025411897568  0.6443869649562249
  0.2749358412168164  0.7737681859992037  0.6442292480650073
  0.7861164700159955  0.2862380674635324  0.6447135410387681
  0.7751363629933158  0.7669962545030419  0.6399875876949104
  0.2717206908882663  0.4841490473631036  0.3576153931061865
  0.2693053504401137  0.9844476090169256  0.3557934482807614
  0.7724125986415280  0.4827156884729329  0.3552382484252465
  0.7703631542113013  0.9838639050132066  0.3571774725684126
  0.2288508271361149  0.0148604562219145  0.8543199544314878
  0.2279195920637473  0.5165599701566540  0.8561947075579572
  0.7290123836378457  0.0155451875810282  0.8578094644072539
  0.7251988460001029  0.5162836015980268  0.8552512278637777
  0.2278228736969265  0.2335905961393430  0.1438940894826327
  0.2282133698854574  0.7335051124280632  0.1439166020986975
  0.7286530755150613  0.2327672044687180  0.1434253962720212
  0.7282095591606434  0.7328014724169956  0.1443052456048812
  0.3376858372893723  0.1234501575468669  0.9997571532466667
  0.3394161141377465  0.6251385467451038  0.9993161365493872
  0.8400147491128263  0.1230711088973255  0.0003059441436027
  0.8399103112227766  0.6255325474880942  0.9985025470457209
  0.1579713843868543  0.3764710781786256  0.5004504424124335
  0.1634773153116860  0.8820642151969177  0.5021322669504584
  0.6674795046006534  0.3688934604446580  0.4983663853746642
  0.6605203365382222  0.8813950184677667  0.5000216080489454
  0.1604225370755011  0.3756460923672401  1.0000723374798879
  0.1593573498153711  0.8716701409154233  0.9987479881110289
  0.6596369741810179  0.3743737893074904  0.9993369999185965
  0.6604167206098066  0.8731413012143618  0.0003187190520551
  0.3368986498647721  0.1237370436523315  0.5007994527767982
  0.3510213937420193  0.6088312825834957  0.5055853023008207
  0.8379621322735300  0.1286306683967639  0.5015051702629003
  0.8344065923877034  0.6124608652524653  0.5048695263586821
  0.0881856337461312  0.3905763305717093  0.2500542141985649
  0.0891874874075526  0.8853208709856353  0.2517137061281463
  0.5895478262872907  0.3876969689508068  0.2493907617681380
  0.5888668530430253  0.8876324771400000  0.2509453726106967
  0.0912790083961393  0.3606653495145539  0.7499651863205767
  0.0883310321017340  0.8609073276750083  0.7475925171138108
  0.5929028796526744  0.3477745722689720  0.7501723074267228
  0.5924216608970081  0.8625163461974704  0.7494130966030541
  0.4104859619902957  0.1397378749179016  0.2498428461168281
  0.4100487772162835  0.6391178592031632  0.2510758214722178
  0.9124364683833655  0.1384023970489761  0.2502286301168633
  0.9108681079696592  0.6389623238713998  0.2512107834288040
  0.4125252416508454  0.1140930916714320  0.7484542342242003
  0.4108389402749623  0.6074717550082611  0.7481225087469743
  0.9090194047025882  0.1126069029878047  0.7492174144953248
  0.8947890805379624  0.6034378509880753  0.7442250343945532
 
  0.00000000E+00  0.00000000E+00  0.00000000E+00
  0.00000000E+00  0.00000000E+00  0.00000000E+00
  0.00000000E+00  0.00000000E+00  0.00000000E+00
  0.00000000E+00  0.00000000E+00  0.00000000E+00
  0.00000000E+00  0.00000000E+00  0.00000000E+00
  0.00000000E+00  0.00000000E+00  0.00000000E+00
  0.00000000E+00  0.00000000E+00  0.00000000E+00
  0.00000000E+00  0.00000000E+00  0.00000000E+00
  0.00000000E+00  0.00000000E+00  0.00000000E+00
  0.00000000E+00  0.00000000E+00  0.00000000E+00
  0.00000000E+00  0.00000000E+00  0.00000000E+00
  0.00000000E+00  0.00000000E+00  0.00000000E+00
  0.00000000E+00  0.00000000E+00  0.00000000E+00
  0.00000000E+00  0.00000000E+00  0.00000000E+00
  0.00000000E+00  0.00000000E+00  0.00000000E+00
  0.00000000E+00  0.00000000E+00  0.00000000E+00
  0.00000000E+00  0.00000000E+00  0.00000000E+00
  0.00000000E+00  0.00000000E+00  0.00000000E+00
  0.00000000E+00  0.00000000E+00  0.00000000E+00
  0.00000000E+00  0.00000000E+00  0.00000000E+00
  0.00000000E+00  0.00000000E+00  0.00000000E+00
  0.00000000E+00  0.00000000E+00  0.00000000E+00
  0.00000000E+00  0.00000000E+00  0.00000000E+00
  0.00000000E+00  0.00000000E+00  0.00000000E+00
  0.00000000E+00  0.00000000E+00  0.00000000E+00
  0.00000000E+00  0.00000000E+00  0.00000000E+00
  0.00000000E+00  0.00000000E+00  0.00000000E+00
  0.00000000E+00  0.00000000E+00  0.00000000E+00
  0.00000000E+00  0.00000000E+00  0.00000000E+00
  0.00000000E+00  0.00000000E+00  0.00000000E+00
  0.00000000E+00  0.00000000E+00  0.00000000E+00
  0.00000000E+00  0.00000000E+00  0.00000000E+00
  0.00000000E+00  0.00000000E+00  0.00000000E+00
  0.00000000E+00  0.00000000E+00  0.00000000E+00
  0.00000000E+00  0.00000000E+00  0.00000000E+00
  0.00000000E+00  0.00000000E+00  0.00000000E+00
  0.00000000E+00  0.00000000E+00  0.00000000E+00
  0.00000000E+00  0.00000000E+00  0.00000000E+00
  0.00000000E+00  0.00000000E+00  0.00000000E+00
  0.00000000E+00  0.00000000E+00  0.00000000E+00
  0.00000000E+00  0.00000000E+00  0.00000000E+00
  0.00000000E+00  0.00000000E+00  0.00000000E+00
  0.00000000E+00  0.00000000E+00  0.00000000E+00
  0.00000000E+00  0.00000000E+00  0.00000000E+00
  0.00000000E+00  0.00000000E+00  0.00000000E+00
  0.00000000E+00  0.00000000E+00  0.00000000E+00
  0.00000000E+00  0.00000000E+00  0.00000000E+00
  0.00000000E+00  0.00000000E+00  0.00000000E+00
  0.00000000E+00  0.00000000E+00  0.00000000E+00
  0.00000000E+00  0.00000000E+00  0.00000000E+00
  0.00000000E+00  0.00000000E+00  0.00000000E+00
  0.00000000E+00  0.00000000E+00  0.00000000E+00
  0.00000000E+00  0.00000000E+00  0.00000000E+00
  0.00000000E+00  0.00000000E+00  0.00000000E+00
  0.00000000E+00  0.00000000E+00  0.00000000E+00
  0.00000000E+00  0.00000000E+00  0.00000000E+00
  0.00000000E+00  0.00000000E+00  0.00000000E+00
  0.00000000E+00  0.00000000E+00  0.00000000E+00
  0.00000000E+00  0.00000000E+00  0.00000000E+00
  0.00000000E+00  0.00000000E+00  0.00000000E+00
  0.00000000E+00  0.00000000E+00  0.00000000E+00
  0.00000000E+00  0.00000000E+00  0.00000000E+00
  0.00000000E+00  0.00000000E+00  0.00000000E+00
  0.00000000E+00  0.00000000E+00  0.00000000E+00
  0.00000000E+00  0.00000000E+00  0.00000000E+00
  0.00000000E+00  0.00000000E+00  0.00000000E+00
  0.00000000E+00  0.00000000E+00  0.00000000E+00
  0.00000000E+00  0.00000000E+00  0.00000000E+00
  0.00000000E+00  0.00000000E+00  0.00000000E+00
  0.00000000E+00  0.00000000E+00  0.00000000E+00
  0.00000000E+00  0.00000000E+00  0.00000000E+00
  0.00000000E+00  0.00000000E+00  0.00000000E+00
  0.00000000E+00  0.00000000E+00  0.00000000E+00
  0.00000000E+00  0.00000000E+00  0.00000000E+00
  0.00000000E+00  0.00000000E+00  0.00000000E+00
  0.00000000E+00  0.00000000E+00  0.00000000E+00
  0.00000000E+00  0.00000000E+00  0.00000000E+00
  0.00000000E+00  0.00000000E+00  0.00000000E+00
  0.00000000E+00  0.00000000E+00  0.00000000E+00
  0.00000000E+00  0.00000000E+00  0.00000000E+00
  0.00000000E+00  0.00000000E+00  0.00000000E+00
  0.00000000E+00  0.00000000E+00  0.00000000E+00
  0.00000000E+00  0.00000000E+00  0.00000000E+00
  0.00000000E+00  0.00000000E+00  0.00000000E+00
  0.00000000E+00  0.00000000E+00  0.00000000E+00
  0.00000000E+00  0.00000000E+00  0.00000000E+00
  0.00000000E+00  0.00000000E+00  0.00000000E+00
  0.00000000E+00  0.00000000E+00  0.00000000E+00
  0.00000000E+00  0.00000000E+00  0.00000000E+00
  0.00000000E+00  0.00000000E+00  0.00000000E+00
  0.00000000E+00  0.00000000E+00  0.00000000E+00
  0.00000000E+00  0.00000000E+00  0.00000000E+00
  0.00000000E+00  0.00000000E+00  0.00000000E+00
  0.00000000E+00  0.00000000E+00  0.00000000E+00
  0.00000000E+00  0.00000000E+00  0.00000000E+00
  0.00000000E+00  0.00000000E+00  0.00000000E+00
  0.00000000E+00  0.00000000E+00  0.00000000E+00
  0.00000000E+00  0.00000000E+00  0.00000000E+00
  0.00000000E+00  0.00000000E+00  0.00000000E+00
  0.00000000E+00  0.00000000E+00  0.00000000E+00
  0.00000000E+00  0.00000000E+00  0.00000000E+00
  0.00000000E+00  0.00000000E+00  0.00000000E+00
  0.00000000E+00  0.00000000E+00  0.00000000E+00
  0.00000000E+00  0.00000000E+00  0.00000000E+00
  0.00000000E+00  0.00000000E+00  0.00000000E+00
  0.00000000E+00  0.00000000E+00  0.00000000E+00
  0.00000000E+00  0.00000000E+00  0.00000000E+00
  0.00000000E+00  0.00000000E+00  0.00000000E+00
  0.00000000E+00  0.00000000E+00  0.00000000E+00
  0.00000000E+00  0.00000000E+00  0.00000000E+00
  0.00000000E+00  0.00000000E+00  0.00000000E+00
  0.00000000E+00  0.00000000E+00  0.00000000E+00
  0.00000000E+00  0.00000000E+00  0.00000000E+00
  0.00000000E+00  0.00000000E+00  0.00000000E+00
  0.00000000E+00  0.00000000E+00  0.00000000E+00
  0.00000000E+00  0.00000000E+00  0.00000000E+00
  0.00000000E+00  0.00000000E+00  0.00000000E+00
  0.00000000E+00  0.00000000E+00  0.00000000E+00
  0.00000000E+00  0.00000000E+00  0.00000000E+00
  0.00000000E+00  0.00000000E+00  0.00000000E+00
  0.00000000E+00  0.00000000E+00  0.00000000E+00
  0.00000000E+00  0.00000000E+00  0.00000000E+00
  0.00000000E+00  0.00000000E+00  0.00000000E+00
  0.00000000E+00  0.00000000E+00  0.00000000E+00
  0.00000000E+00  0.00000000E+00  0.00000000E+00
  0.00000000E+00  0.00000000E+00  0.00000000E+00
  0.00000000E+00  0.00000000E+00  0.00000000E+00
  0.00000000E+00  0.00000000E+00  0.00000000E+00
  0.00000000E+00  0.00000000E+00  0.00000000E+00
  0.00000000E+00  0.00000000E+00  0.00000000E+00
  0.00000000E+00  0.00000000E+00  0.00000000E+00
  0.00000000E+00  0.00000000E+00  0.00000000E+00
  0.00000000E+00  0.00000000E+00  0.00000000E+00
  0.00000000E+00  0.00000000E+00  0.00000000E+00
  0.00000000E+00  0.00000000E+00  0.00000000E+00
  0.00000000E+00  0.00000000E+00  0.00000000E+00
  0.00000000E+00  0.00000000E+00  0.00000000E+00
  0.00000000E+00  0.00000000E+00  0.00000000E+00
  0.00000000E+00  0.00000000E+00  0.00000000E+00
  0.00000000E+00  0.00000000E+00  0.00000000E+00
  0.00000000E+00  0.00000000E+00  0.00000000E+00
  0.00000000E+00  0.00000000E+00  0.00000000E+00
  0.00000000E+00  0.00000000E+00  0.00000000E+00
  0.00000000E+00  0.00000000E+00  0.00000000E+00
  0.00000000E+00  0.00000000E+00  0.00000000E+00
  0.00000000E+00  0.00000000E+00  0.00000000E+00
  0.00000000E+00  0.00000000E+00  0.00000000E+00
  0.00000000E+00  0.00000000E+00  0.00000000E+00
  0.00000000E+00  0.00000000E+00  0.00000000E+00
  0.00000000E+00  0.00000000E+00  0.00000000E+00
  0.00000000E+00  0.00000000E+00  0.00000000E+00
  0.00000000E+00  0.00000000E+00  0.00000000E+00
  0.00000000E+00  0.00000000E+00  0.00000000E+00
  0.00000000E+00  0.00000000E+00  0.00000000E+00
  0.00000000E+00  0.00000000E+00  0.00000000E+00
  0.00000000E+00  0.00000000E+00  0.00000000E+00
  0.00000000E+00  0.00000000E+00  0.00000000E+00
  0.00000000E+00  0.00000000E+00  0.00000000E+00
  0.00000000E+00  0.00000000E+00  0.00000000E+00
