Si24 O48
1.0
   4.9149661767277042   -8.5129711355749365    0.0000000000000000
   4.9149661767277042    8.5129711355749365    0.0000000000000000
   0.0000000000000000    0.0000000000000000   10.8626022800000008
Si O
24 48
direct
   0.2655442950000000    0.2655442950000000    0.0000000000000000 Si
   0.2655442950000000    0.2655442950000000    0.4999999999999999 Si
   0.2655442950000000    0.7655442950000000    0.0000000000000000 Si
   0.2655442950000000    0.7655442950000000    0.4999999999999999 Si
   0.7655442950000000    0.2655442950000000    0.0000000000000000 Si
   0.7655442950000000    0.2655442950000000    0.4999999999999999 Si
   0.7655442950000000    0.7655442950000000    0.0000000000000000 Si
   0.7655442950000000    0.7655442950000000    0.4999999999999999 Si
   0.0000000000000000    0.2344557050000000    0.3333333333333330 Si
   0.0000000000000000    0.2344557050000000    0.8333333333333329 Si
   0.0000000000000000    0.7344557050000000    0.3333333333333330 Si
   0.0000000000000000    0.7344557050000000    0.8333333333333329 Si
   0.5000000000000000    0.2344557050000000    0.3333333333333330 Si
   0.5000000000000000    0.2344557050000000    0.8333333333333329 Si
   0.5000000000000000    0.7344557050000000    0.3333333333333330 Si
   0.5000000000000000    0.7344557050000000    0.8333333333333329 Si
   0.2344557050000000    0.0000000000000000    0.1666666666666665 Si
   0.2344557050000000    0.0000000000000000    0.6666666666666665 Si
   0.2344557050000000    0.5000000000000000    0.1666666666666665 Si
   0.2344557050000000    0.5000000000000000    0.6666666666666665 Si
   0.7344557050000000    0.0000000000000000    0.1666666666666665 Si
   0.7344557050000000    0.0000000000000000    0.6666666666666665 Si
   0.7344557050000000    0.5000000000000000    0.1666666666666665 Si
   0.7344557050000000    0.5000000000000000    0.6666666666666665 Si
   0.1346115550000000    0.2066971450000000    0.3924454900000000 O
   0.1346115550000000    0.2066971450000000    0.8924454900000000 O
   0.1346115550000000    0.7066971449999999    0.3924454900000000 O
   0.1346115550000000    0.7066971449999999    0.8924454900000000 O
   0.6346115550000000    0.2066971449999999    0.3924454900000000 O
   0.6346115550000000    0.2066971449999999    0.8924454900000000 O
   0.6346115550000000    0.7066971449999999    0.3924454900000000 O
   0.6346115550000000    0.7066971449999999    0.8924454900000000 O
   0.2933028550000000    0.4279144099999995    0.0591121566666665 O
   0.2933028550000000    0.4279144099999995    0.5591121566666665 O
   0.2933028550000000    0.9279144099999995    0.0591121566666665 O
   0.2933028550000000    0.9279144099999995    0.5591121566666665 O
   0.7933028550000000    0.4279144099999995    0.0591121566666665 O
   0.7933028550000000    0.4279144099999995    0.5591121566666665 O
   0.7933028550000001    0.9279144099999996    0.0591121566666665 O
   0.7933028550000001    0.9279144099999996    0.5591121566666665 O
   0.0720855900000000    0.3653884450000000    0.2257788233333330 O
   0.0720855900000000    0.3653884450000000    0.7257788233333330 O
   0.0720855899999999    0.8653884450000000    0.2257788233333330 O
   0.0720855899999999    0.8653884450000000    0.7257788233333330 O
   0.5720855899999999    0.3653884450000000    0.2257788233333330 O
   0.5720855899999999    0.3653884450000000    0.7257788233333330 O
   0.5720855899999999    0.8653884450000000    0.2257788233333330 O
   0.5720855899999999    0.8653884450000000    0.7257788233333330 O
   0.2066971450000000    0.1346115550000000    0.1075545099999995 O
   0.2066971450000000    0.1346115550000000    0.6075545099999995 O
   0.2066971449999999    0.6346115550000000    0.1075545099999995 O
   0.2066971449999999    0.6346115550000000    0.6075545099999995 O
   0.7066971449999999    0.1346115550000000    0.1075545099999995 O
   0.7066971449999999    0.1346115550000000    0.6075545099999995 O
   0.7066971449999999    0.6346115550000000    0.1075545099999995 O
   0.7066971449999999    0.6346115550000000    0.6075545099999995 O
   0.3653884450000000    0.0720855900000000    0.2742211766666665 O
   0.3653884450000000    0.0720855900000000    0.7742211766666665 O
   0.3653884450000000    0.5720855899999999    0.2742211766666665 O
   0.3653884450000000    0.5720855899999999    0.7742211766666665 O
   0.8653884450000000    0.0720855899999999    0.2742211766666665 O
   0.8653884450000000    0.0720855899999999    0.7742211766666665 O
   0.8653884450000000    0.5720855899999999    0.2742211766666665 O
   0.8653884450000000    0.5720855899999999    0.7742211766666665 O
   0.4279144099999995    0.2933028550000000    0.4408878433333330 O
   0.4279144099999995    0.2933028550000000    0.9408878433333330 O
   0.4279144099999995    0.7933028550000000    0.4408878433333330 O
   0.4279144099999995    0.7933028550000000    0.9408878433333330 O
   0.9279144099999995    0.2933028550000000    0.4408878433333330 O
   0.9279144099999995    0.2933028550000000    0.9408878433333330 O
   0.9279144099999996    0.7933028550000001    0.4408878433333330 O
   0.9279144099999996    0.7933028550000001    0.9408878433333330 O
