ALGO = Normal
AMIX = 0.2
EDIFF = 1e-06
EDIFFG = -0.05
ENCUT = 800
IBRION = 2
ISIF = 2
ISMEAR = 0
ISPIN = 1
ISYM = 0
LCHARG = True
LORBIT = 11
LREAL = False
LWAVE = False
NELM = 200
NSW = 0
SIGMA = 0.05
SYSTEM = Bi2o3
