Bi32 O48
1.0
  11.9791037899524930    0.0000000000000000    0.0000000000000000
  -6.5077228631556538   13.7371519104579569    0.0000000000000000
   0.0957864333070056    0.1488602936402507    8.2922784100655917
Bi O
32 48
direct
   0.2625560844681488    0.1919003314894260    0.6803425694380871 Bi
   0.0227069286325788    0.5530235079714196    0.6725907795413595 Bi
   0.5513813477869136    0.2152556288446632    0.1874961166418075 Bi
   0.4070133552154812    0.6447600755207027    0.6021276364695173 Bi
   0.2269814929139157    0.2322700923069122    0.1493377258651648 Bi
   0.0262895896081298    0.5546225720060441    0.6947149764059155 Bi
   0.6547188088160326    0.0315057461607152    0.0634338325352778 Bi
   0.6579810973579906    0.6900175473191554    0.8918706818891652 Bi
   0.5284590249636441    0.4966678615464540    0.2878412761808271 Bi
   0.5221124743930857    0.9790875408526487    0.6282784709297755 Bi
   0.7905268948807658    0.2295791724370266    0.6630783155237195 Bi
   0.1564123266681535    0.0079255305053913    0.4009718240964970 Bi
   0.4812792936698543    0.4408355821867969    0.8875075867046036 Bi
   0.3185206798671844    0.7906263920022476    0.8883843059415234 Bi
   0.8850403217688927    0.3373166112128861    0.2366008354975724 Bi
   0.8752964721629080    0.8833064912268597    0.0086292085795313 Bi
   0.1394783478476261    0.3663615810678167    0.4913016421463561 Bi
   0.2363601226006111    0.8254056636324046    0.3558840953070048 Bi
   0.7857501693742601    0.5042113912712550    0.0383683451358555 Bi
   0.5209638315900573    0.8076567469393922    0.2377838637938838 Bi
   0.0898181594572334    0.3419151214113401    0.8827742675781791 Bi
   0.9712218306534961    0.7884773322994143    0.7131996427931343 Bi
   0.5067440003687325    0.1786089394386620    0.7671076253636887 Bi
   0.7823692873807921    0.8576414345472317    0.5162513591926224 Bi
   0.2238936573606751    0.0021451669740401    0.9597892890739359 Bi
   0.3408733804546535    0.5706772262927955    0.7263202828174651 Bi
   0.9485291890243183    0.0902334395206967    0.7880512058142909 Bi
   0.6893574999518284    0.4236330693880640    0.5589682076247771 Bi
   0.5088689754957814    0.1580073810624518    0.3141778255826064 Bi
   0.2699444081079306    0.5629801505984724    0.2151423181636624 Bi
   0.9318638355549308    0.1074385816688678    0.3454237615229013 Bi
   0.9219326956937189    0.7170251200248088    0.2551855950026239 Bi
   0.5231132186913536    0.3506404515499879    0.7236237983418765 O
   0.3073677146599709    0.7164475111522256    0.1593554792366828 O
   0.5118430144123514    0.6754722186085125    0.3913435897257014 O
   0.1159236502698827    0.4665898671825534    0.6852338668589223 O
   0.3737517872141878    0.1887079431494876    0.9726590933330953 O
   0.8497803703981534    0.4514613899623283    0.7023787325965977 O
   0.9161292535919721    0.2214612194620869    0.8121278214471737 O
   0.0564141976545322    0.8457148633082773    0.9403881073908996 O
   0.4313283319303367    0.8207224573154746    0.4622517250924864 O
   0.0640688728863027    0.8434305386414701    0.4767326667663984 O
   0.5031860353539620    0.5618927440304451    0.0371087395746962 O
   0.5171111937996569    0.8947406186637974    0.9741496366299772 O
   0.0981177230190630    0.1979578102459011    0.4955887630366591 O
   0.0265590499614542    0.6814722488969940    0.7062473918978893 O
   0.6751594346384676    0.2573604538271794    0.9269117147188505 O
   0.7950983154463616    0.8949444626871529    0.7941134721196502 O
   0.2621837639731380    0.3796078534382578    0.7127437970275833 O
   0.0842918532677570    0.6982946707221698    0.3096193679270944 O
   0.7625940949518281    0.4084208870832134    0.2791223214587765 O
   0.7248050095854649    0.7799623155024579    0.0990135592894915 O
   0.3181941519104009    0.4223045928830360    0.2744698003913254 O
   0.1019229999977583    0.0788088692033339    0.1987137814861388 O
   0.6956463971380348    0.5480184690989088    0.8076501618506349 O
   0.8388072163837801    0.0947851501973552    0.5736384820637461 O
   0.1556057629691651    0.0361841888356192    0.7262937521115336 O
   0.2516681262295940    0.6685723510698468    0.6857439799775151 O
   0.1281909877242017    0.1771459952226610    0.9007005831996568 O
   0.5357374507663389    0.5943204746780257    0.6971594191751543 O
   0.3128877211905567    0.9291867311870290    0.8102947908555390 O
   0.2420964618806484    0.5634269888663056    0.9499367496439007 O
   0.6821573957429604    0.9236456044207089    0.4221409155475174 O
   0.9151681792011702    0.4026784916843836    0.0050677627935152 O
   0.3461025279040901    0.2045581498956304    0.3096434867506686 O
   0.4823819197278000    0.7215151045872340    0.8245140432936717 O
   0.0519563281465383    0.2815449773345179    0.2092826499763257 O
   0.1915380910500769    0.9346265288157477    0.2209682199979953 O
   0.5380958110594485    0.3813703110565628    0.1192937514976870 O
   0.6174514341510980    0.0979818204003001    0.7987949357753903 O
   0.5987180910304092    0.2635775177323333    0.5251608526209089 O
   0.9491997394221965    0.9687078898735108    0.4347200879826086 O
   0.8330030165968384    0.0248315887407587    0.0282660552877102 O
   0.8359927743884487    0.5592641316704126    0.4431918247630244 O
   0.4520019468314328    0.0494002449362785    0.1106092866933474 O
   0.9747433582864135    0.6330805455571026    0.0907318788388400 O
   0.4088512319175645    0.0521134662251545    0.5148814100136115 O
   0.0473613441185360    0.4833610842291565    0.2770071006313246 O
   0.6989485113658754    0.1715730748259922    0.3425668868705448 O
   0.7416373061958730    0.6150171947146620    0.1802049962753458 O
