Na8 Nb8 O24
1.0
7.812000 0.000000 0.000000
0.000000 7.812000 0.000000
0.000000 0.000000 7.812000
Na Nb O
8 8 24
direct
0.000000 0.000000 0.000000 Na
0.000000 0.000000 0.500000 Na
0.000000 0.500000 0.000000 Na
0.000000 0.500000 0.500000 Na
0.500000 0.000000 0.000000 Na
0.500000 0.000000 0.500000 Na
0.500000 0.500000 0.000000 Na
0.500000 0.500000 0.500000 Na
0.250000 0.250000 0.250000 Nb
0.250000 0.250000 0.750000 Nb
0.250000 0.750000 0.250000 Nb
0.250000 0.750000 0.750000 Nb
0.750000 0.250000 0.250000 Nb
0.750000 0.250000 0.750000 Nb
0.750000 0.750000 0.250000 Nb
0.750000 0.750000 0.750000 Nb
0.000000 0.250000 0.250000 O
0.000000 0.250000 0.750000 O
0.000000 0.750000 0.250000 O
0.000000 0.750000 0.750000 O
0.500000 0.250000 0.250000 O
0.500000 0.250000 0.750000 O
0.500000 0.750000 0.250000 O
0.500000 0.750000 0.750000 O
0.250000 0.000000 0.250000 O
0.250000 0.000000 0.750000 O
0.250000 0.500000 0.250000 O
0.250000 0.500000 0.750000 O
0.750000 0.000000 0.250000 O
0.750000 0.000000 0.750000 O
0.750000 0.500000 0.250000 O
0.750000 0.500000 0.750000 O
0.250000 0.250000 0.000000 O
0.250000 0.250000 0.500000 O
0.250000 0.750000 0.000000 O
0.250000 0.750000 0.500000 O
0.750000 0.250000 0.000000 O
0.750000 0.250000 0.500000 O
0.750000 0.750000 0.000000 O
0.750000 0.750000 0.500000 O
