Na32 Nb32 O95
1.0
11.148091 0.000000 0.000000
0.000000 11.366043 0.000000
0.000000 0.000000 15.594934
Na Nb O
32 32 95
direct
0.130149 0.126390 0.001330 Na
0.128408 0.626982 -0.000864 Na
0.628178 0.127418 0.000195 Na
0.630864 0.625868 0.001789 Na
0.363958 0.381624 0.496801 Na
0.372446 0.874651 0.497623 Na
0.873654 0.378862 0.498356 Na
0.867664 0.891560 0.495511 Na
0.370877 0.376004 0.000408 Na
0.369743 0.875739 0.000530 Na
0.870310 0.375943 0.000571 Na
0.871641 0.875971 0.000022 Na
0.124261 0.130702 0.494245 Na
0.137009 0.622591 0.493534 Na
0.630788 0.107186 0.495388 Na
0.625318 0.626412 0.494920 Na
0.129832 0.099751 0.249107 Na
0.130210 0.601491 0.249450 Na
0.629162 0.100561 0.249570 Na
0.629983 0.599386 0.249710 Na
0.122918 0.150757 0.754783 Na
0.137103 0.650104 0.753501 Na
0.629122 0.141484 0.757004 Na
0.625784 0.655821 0.758594 Na
0.369329 0.351302 0.249315 Na
0.369505 0.851294 0.249520 Na
0.869621 0.351289 0.248646 Na
0.869003 0.851074 0.249080 Na
0.368635 0.402074 0.752361 Na
0.373650 0.897452 0.753210 Na
0.875846 0.391773 0.754745 Na
0.867600 0.903489 0.751308 Na
0.121471 0.361239 0.125126 Nb
0.121429 0.861111 0.124997 Nb
0.621421 0.361248 0.125772 Nb
0.621471 0.860604 0.125795 Nb
0.122068 0.389089 0.875260 Nb
0.122349 0.888458 0.873633 Nb
0.622523 0.388879 0.875295 Nb
0.622335 0.889130 0.876736 Nb
0.376578 0.111367 0.373484 Nb
0.378996 0.611921 0.373917 Nb
0.877661 0.113173 0.373032 Nb
0.877308 0.611033 0.374422 Nb
0.361267 0.128641 0.626219 Nb
0.381000 0.640691 0.625655 Nb
0.877509 0.142695 0.624376 Nb
0.891511 0.645579 0.621265 Nb
0.378280 0.139167 0.873853 Nb
0.378829 0.638379 0.875449 Nb
0.878305 0.138904 0.875503 Nb
0.876693 0.637840 0.873703 Nb
0.378717 0.111495 0.124900 Nb
0.378191 0.610999 0.125219 Nb
0.878050 0.110731 0.124762 Nb
0.878608 0.611998 0.125117 Nb
0.121366 0.391187 0.625767 Nb
0.120427 0.889364 0.624016 Nb
0.603911 0.355075 0.618524 Nb
0.621079 0.889448 0.626202 Nb
0.120549 0.362531 0.374003 Nb
0.119433 0.861539 0.375294 Nb
0.620935 0.362156 0.375916 Nb
0.621554 0.861319 0.374956 Nb
0.018128 0.021600 0.393012 O
0.019628 0.522912 0.394230 O
0.517347 0.020910 0.391696 O
0.521153 0.522376 0.391237 O
0.022439 0.225944 0.607969 O
0.032940 0.726839 0.602327 O
0.523257 0.214997 0.599856 O
0.527127 0.723285 0.608432 O
0.479186 0.273627 0.106691 O
0.479171 0.773375 0.106380 O
0.979124 0.273714 0.106656 O
0.978408 0.773834 0.107502 O
0.477345 0.473581 0.890167 O
0.479124 0.976370 0.892939 O
0.977576 0.475515 0.890425 O
0.979448 0.975868 0.891115 O
0.484668 0.472204 0.608321 O
0.476189 0.972974 0.608519 O
0.975018 0.476041 0.610420 O
0.979258 0.976836 0.608346 O
0.481208 0.272614 0.398253 O
0.480513 0.771375 0.394255 O
0.980061 0.271830 0.394153 O
0.979629 0.771694 0.399741 O
0.021844 0.225577 0.893121 O
0.021951 0.722937 0.885800 O
0.522646 0.226734 0.888572 O
0.522394 0.725225 0.893150 O
0.021644 0.023381 0.107730 O
0.021022 0.524425 0.107233 O
0.521212 0.023475 0.107474 O
0.521443 0.523408 0.108471 O
0.229356 0.235462 0.357569 O
0.228221 0.734035 0.360195 O
0.728992 0.234645 0.359801 O
0.730296 0.733359 0.359815 O
0.224686 0.022831 0.649368 O
0.227539 0.518718 0.643746 O
0.726673 0.019104 0.644073 O
0.271870 0.483698 0.144724 O
0.271171 0.983961 0.143251 O
0.771769 0.484414 0.143494 O
0.772123 0.983418 0.144832 O
0.272056 0.266594 0.855922 O
0.273220 0.766437 0.856029 O
0.772550 0.267651 0.858012 O
0.773002 0.767417 0.855687 O
0.276122 0.269485 0.642707 O
0.277853 0.770854 0.642572 O
0.776244 0.278097 0.640471 O
0.776222 0.765164 0.640422 O
0.270806 0.484477 0.357225 O
0.269057 0.985540 0.354529 O
0.771875 0.484146 0.354531 O
0.769612 0.985353 0.356258 O
0.229347 0.015840 0.854586 O
0.227606 0.517161 0.856347 O
0.728435 0.017006 0.857643 O
0.725424 0.519253 0.859276 O
0.228015 0.233722 0.143819 O
0.228494 0.734088 0.143566 O
0.728605 0.234012 0.143752 O
0.728380 0.732936 0.144510 O
0.341204 0.126073 -0.000732 O
0.339428 0.623494 -0.000000 O
0.839008 0.123676 0.000487 O
0.841835 0.626573 -0.001052 O
0.157397 0.376809 0.500939 O
0.164152 0.883894 0.501356 O
0.667103 0.387769 0.502873 O
0.659210 0.879984 0.500032 O
0.160820 0.375698 0.000040 O
0.158383 0.872340 -0.001175 O
0.659196 0.375034 -0.000239 O
0.662321 0.874041 0.000626 O
0.335943 0.120663 0.501188 O
0.344161 0.621496 0.501182 O
0.839849 0.122804 0.501147 O
0.833045 0.610531 0.505715 O
0.087871 0.390023 0.250382 O
0.087834 0.885789 0.251327 O
0.589099 0.385884 0.251703 O
0.589097 0.887858 0.250476 O
0.091668 0.359060 0.749988 O
0.090183 0.858844 0.748130 O
0.602623 0.367170 0.744712 O
0.591986 0.861172 0.750677 O
0.411087 0.141429 0.250204 O
0.410114 0.641076 0.250296 O
0.911126 0.140898 0.250208 O
0.911417 0.639575 0.251568 O
0.413818 0.112404 0.748289 O
0.410737 0.610148 0.750060 O
0.906936 0.113949 0.749670 O
0.891982 0.601854 0.744097 O
