Si24 O47                                
   1.00000000000000     
     4.9149661767277042   -8.5129711355749365    0.0000000000000000
     4.9149661767277042    8.5129711355749365    0.0000000000000000
     0.0000000000000000    0.0000000000000000   10.8626022800000008
   Si   O 
    24    47
Direct
  0.2655442949999980  0.2655442949999980  0.0000000000000000
  0.2655442949999980  0.2655442949999980  0.5000000000000000
  0.2655442949999980  0.7655442949999980  0.0000000000000000
  0.2655442949999980  0.7655442949999980  0.5000000000000000
  0.7655442949999980  0.2655442949999980  0.0000000000000000
  0.7655442949999980  0.2655442949999980  0.5000000000000000
  0.7655442949999980  0.7655442949999980  0.0000000000000000
  0.7655442949999980  0.7655442949999980  0.5000000000000000
  0.0000000000000000  0.2344557050000020  0.3333333333333357
  0.0000000000000000  0.2344557050000020  0.8333333333333357
  0.0000000000000000  0.7344557050000020  0.3333333333333357
  0.0000000000000000  0.7344557050000020  0.8333333333333357
  0.5000000000000000  0.2344557050000020  0.3333333333333357
  0.5000000000000000  0.2344557050000020  0.8333333333333357
  0.5000000000000000  0.7344557050000020  0.3333333333333357
  0.5000000000000000  0.7344557050000020  0.8333333333333357
  0.2344557050000020  0.0000000000000000  0.1666666666666643
  0.2344557050000020  0.0000000000000000  0.6666666666666643
  0.2344557050000020  0.5000000000000000  0.1666666666666643
  0.2344557050000020  0.5000000000000000  0.6666666666666643
  0.7344557050000020  0.0000000000000000  0.1666666666666643
  0.7344557050000020  0.0000000000000000  0.6666666666666643
  0.7344557050000020  0.5000000000000000  0.1666666666666643
  0.7344557050000020  0.5000000000000000  0.6666666666666643
  0.1346115549999993  0.2066971449999997  0.8924454900000001
  0.1346115549999993  0.7066971449999997  0.3924454900000001
  0.1346115549999993  0.7066971449999997  0.8924454900000001
  0.6346115549999993  0.2066971449999997  0.3924454900000001
  0.6346115549999993  0.2066971449999997  0.8924454900000001
  0.6346115549999993  0.7066971449999997  0.3924454900000001
  0.6346115549999993  0.7066971449999997  0.8924454900000001
  0.2933028550000003  0.4279144099999996  0.0591121566666644
  0.2933028550000003  0.4279144099999996  0.5591121566666644
  0.2933028550000003  0.9279144099999996  0.0591121566666644
  0.2933028550000003  0.9279144099999996  0.5591121566666644
  0.7933028550000003  0.4279144099999996  0.0591121566666644
  0.7933028550000003  0.4279144099999996  0.5591121566666644
  0.7933028550000003  0.9279144099999996  0.0591121566666644
  0.7933028550000003  0.9279144099999996  0.5591121566666644
  0.0720855900000004  0.3653884450000007  0.2257788233333358
  0.0720855900000004  0.3653884450000007  0.7257788233333358
  0.0720855900000004  0.8653884450000007  0.2257788233333358
  0.0720855900000004  0.8653884450000007  0.7257788233333358
  0.5720855900000004  0.3653884450000007  0.2257788233333358
  0.5720855900000004  0.3653884450000007  0.7257788233333358
  0.5720855900000004  0.8653884450000007  0.2257788233333358
  0.5720855900000004  0.8653884450000007  0.7257788233333358
  0.2066971449999997  0.1346115549999993  0.1075545099999999
  0.2066971449999997  0.1346115549999993  0.6075545099999999
  0.2066971449999997  0.6346115549999993  0.1075545099999999
  0.2066971449999997  0.6346115549999993  0.6075545099999999
  0.7066971449999997  0.1346115549999993  0.1075545099999999
  0.7066971449999997  0.1346115549999993  0.6075545099999999
  0.7066971449999997  0.6346115549999993  0.1075545099999999
  0.7066971449999997  0.6346115549999993  0.6075545099999999
  0.3653884450000007  0.0720855900000004  0.2742211766666642
  0.3653884450000007  0.0720855900000004  0.7742211766666642
  0.3653884450000007  0.5720855900000004  0.2742211766666642
  0.3653884450000007  0.5720855900000004  0.7742211766666642
  0.8653884450000007  0.0720855900000004  0.2742211766666642
  0.8653884450000007  0.0720855900000004  0.7742211766666642
  0.8653884450000007  0.5720855900000004  0.2742211766666642
  0.8653884450000007  0.5720855900000004  0.7742211766666642
  0.4279144099999996  0.2933028550000003  0.4408878433333356
  0.4279144099999996  0.2933028550000003  0.9408878433333356
  0.4279144099999996  0.7933028550000003  0.4408878433333356
  0.4279144099999996  0.7933028550000003  0.9408878433333356
  0.9279144099999996  0.2933028550000003  0.4408878433333356
  0.9279144099999996  0.2933028550000003  0.9408878433333356
  0.9279144099999996  0.7933028550000003  0.4408878433333356
  0.9279144099999996  0.7933028550000003  0.9408878433333356
 
  0.00000000E+00  0.00000000E+00  0.00000000E+00
  0.00000000E+00  0.00000000E+00  0.00000000E+00
  0.00000000E+00  0.00000000E+00  0.00000000E+00
  0.00000000E+00  0.00000000E+00  0.00000000E+00
  0.00000000E+00  0.00000000E+00  0.00000000E+00
  0.00000000E+00  0.00000000E+00  0.00000000E+00
  0.00000000E+00  0.00000000E+00  0.00000000E+00
  0.00000000E+00  0.00000000E+00  0.00000000E+00
  0.00000000E+00  0.00000000E+00  0.00000000E+00
  0.00000000E+00  0.00000000E+00  0.00000000E+00
  0.00000000E+00  0.00000000E+00  0.00000000E+00
  0.00000000E+00  0.00000000E+00  0.00000000E+00
  0.00000000E+00  0.00000000E+00  0.00000000E+00
  0.00000000E+00  0.00000000E+00  0.00000000E+00
  0.00000000E+00  0.00000000E+00  0.00000000E+00
  0.00000000E+00  0.00000000E+00  0.00000000E+00
  0.00000000E+00  0.00000000E+00  0.00000000E+00
  0.00000000E+00  0.00000000E+00  0.00000000E+00
  0.00000000E+00  0.00000000E+00  0.00000000E+00
  0.00000000E+00  0.00000000E+00  0.00000000E+00
  0.00000000E+00  0.00000000E+00  0.00000000E+00
  0.00000000E+00  0.00000000E+00  0.00000000E+00
  0.00000000E+00  0.00000000E+00  0.00000000E+00
  0.00000000E+00  0.00000000E+00  0.00000000E+00
  0.00000000E+00  0.00000000E+00  0.00000000E+00
  0.00000000E+00  0.00000000E+00  0.00000000E+00
  0.00000000E+00  0.00000000E+00  0.00000000E+00
  0.00000000E+00  0.00000000E+00  0.00000000E+00
  0.00000000E+00  0.00000000E+00  0.00000000E+00
  0.00000000E+00  0.00000000E+00  0.00000000E+00
  0.00000000E+00  0.00000000E+00  0.00000000E+00
  0.00000000E+00  0.00000000E+00  0.00000000E+00
  0.00000000E+00  0.00000000E+00  0.00000000E+00
  0.00000000E+00  0.00000000E+00  0.00000000E+00
  0.00000000E+00  0.00000000E+00  0.00000000E+00
  0.00000000E+00  0.00000000E+00  0.00000000E+00
  0.00000000E+00  0.00000000E+00  0.00000000E+00
  0.00000000E+00  0.00000000E+00  0.00000000E+00
  0.00000000E+00  0.00000000E+00  0.00000000E+00
  0.00000000E+00  0.00000000E+00  0.00000000E+00
  0.00000000E+00  0.00000000E+00  0.00000000E+00
  0.00000000E+00  0.00000000E+00  0.00000000E+00
  0.00000000E+00  0.00000000E+00  0.00000000E+00
  0.00000000E+00  0.00000000E+00  0.00000000E+00
  0.00000000E+00  0.00000000E+00  0.00000000E+00
  0.00000000E+00  0.00000000E+00  0.00000000E+00
  0.00000000E+00  0.00000000E+00  0.00000000E+00
  0.00000000E+00  0.00000000E+00  0.00000000E+00
  0.00000000E+00  0.00000000E+00  0.00000000E+00
  0.00000000E+00  0.00000000E+00  0.00000000E+00
  0.00000000E+00  0.00000000E+00  0.00000000E+00
  0.00000000E+00  0.00000000E+00  0.00000000E+00
  0.00000000E+00  0.00000000E+00  0.00000000E+00
  0.00000000E+00  0.00000000E+00  0.00000000E+00
  0.00000000E+00  0.00000000E+00  0.00000000E+00
  0.00000000E+00  0.00000000E+00  0.00000000E+00
  0.00000000E+00  0.00000000E+00  0.00000000E+00
  0.00000000E+00  0.00000000E+00  0.00000000E+00
  0.00000000E+00  0.00000000E+00  0.00000000E+00
  0.00000000E+00  0.00000000E+00  0.00000000E+00
  0.00000000E+00  0.00000000E+00  0.00000000E+00
  0.00000000E+00  0.00000000E+00  0.00000000E+00
  0.00000000E+00  0.00000000E+00  0.00000000E+00
  0.00000000E+00  0.00000000E+00  0.00000000E+00
  0.00000000E+00  0.00000000E+00  0.00000000E+00
  0.00000000E+00  0.00000000E+00  0.00000000E+00
  0.00000000E+00  0.00000000E+00  0.00000000E+00
  0.00000000E+00  0.00000000E+00  0.00000000E+00
  0.00000000E+00  0.00000000E+00  0.00000000E+00
  0.00000000E+00  0.00000000E+00  0.00000000E+00
  0.00000000E+00  0.00000000E+00  0.00000000E+00
