ALGO = Normal
AMIX = 0.2
EDIFF = 1e-06
EDIFFG = -0.05
ENCUT = 550
IBRION = 2
ISIF = 2
ISMEAR = 0
ISPIN = 1
ISYM = 3
KPAR = 4
LCHARG = .TRUE.
LHFCALC = True
LORBIT = 10
LREAL = .FALSE.
LWAVE = .TRUE.
NELM = 200
NSW = 0
SIGMA = 0.05
SYSTEM = Si
