# LAMMPS input generated from LammpsInputFile with pymatgen v2025.1.9

units metal
dimension 3
boundary p p p
atom_style charge # Charge needed for Coulomb interactions
# Atom definition
read_data initial_structure.data
# Define Interatomic Potential
include STO_Pedone2006.pot
# Define Charges
set type 1 charge 1.2
set type 2 charge 2.4
set type 3 charge -1.2
# Enable Long-Range Electrostatics
kspace_style pppm 1.0e-6
# Create velocities
velocity all create 600 142857 mom yes rot yes dist gaussian
# Ensemble constraints
# fix             1 all nve
fix 1 all nvt temp 600 600 0.1
# fix             1 all npt temp 600 600 0.1 iso $pressure $pressure 1.0
# Output settings
# thermo_style    custom ...  # control the thermo data type to output
thermo 100 # output thermo data every N steps
dump 1 all atom 100 traj.*.gz # dump a snapshot every 100 steps
# Actions
run 10000
