Na32 Nb32 O95                           
   1.00000000000000     
    11.1480910000000009    0.0000000000000000    0.0000000000000000
     0.0000000000000000   11.3660429999999995    0.0000000000000000
     0.0000000000000000    0.0000000000000000   15.5949340000000003
   Na   Nb   O 
    32    32    95
Direct
  0.1284215114799826  0.1260118257738594  0.0012996084775173
  0.1281629107092087  0.6264297665871204  0.9989866376495037
  0.6294591141001796  0.1258193699798420  0.0013131459099821
  0.6294189320682014  0.6251544644512333  0.0013051673160197
  0.3674404029525989  0.3788396667646569  0.4968197457675130
  0.3738506126310024  0.8801454846196111  0.4977786030379926
  0.8762181423019354  0.3794097245868289  0.4981648703348142
  0.8682398156225331  0.8891054776734758  0.4953163350822402
  0.3704205357669121  0.3754240386628098  0.0003796471699407
  0.3700524278372885  0.8752979079312697  0.0004883088640719
  0.8703615423836895  0.3753622692914891  0.0005497869032050
  0.8706148370126199  0.8762267331897813  0.0001427760820765
  0.1256194773811684  0.1305158431361620  0.4934920221334099
  0.1388382053192528  0.6214126724302657  0.4939333281711681
  0.6284581073972336  0.1131432695564341  0.4953665163696170
  0.6224495336895636  0.6227629168067780  0.5000854246260119
  0.1297052281016513  0.0991469143319177  0.2491799569944855
  0.1305098325402001  0.6009972428373935  0.2498971001715856
  0.6291200489983997  0.0994866742143071  0.2494112714516778
  0.6299813607726003  0.5988427200890910  0.2498659797660799
  0.1245296453331460  0.1518078858031878  0.7548879987687932
  0.1361919280697402  0.6496893791415579  0.7534335418713047
  0.6279518505057999  0.1401739822707502  0.7598889930250708
  0.6253918854333718  0.6543585810348074  0.7547901911195117
  0.3696028677932570  0.3507665550595752  0.2493059360874074
  0.3692330393925035  0.8506158173470664  0.2496776301261026
  0.8694338251637060  0.3501666429674501  0.2485411002889180
  0.8687690437603209  0.8506156371082123  0.2495121239003731
  0.3689677243187304  0.4003858382862724  0.7551336500190420
  0.3736518285743932  0.8989408383750770  0.7540087011166495
  0.8790180515831073  0.3924887788538630  0.7571454511166550
  0.8678233522148279  0.9032572038594395  0.7521533283463804
  0.1210472717620890  0.3609747841827611  0.1253271961525219
  0.1211318011320433  0.8605333993262643  0.1250890325339368
  0.6207914721115290  0.3602160353961718  0.1261369018653281
  0.6210414141157949  0.8602192785396885  0.1261477940794373
  0.1220020470719761  0.3888392006019424  0.8753230834173257
  0.1222609477603908  0.8877584423763124  0.8737018416966501
  0.6219792841238521  0.3875737953244678  0.8758169915649804
  0.6222315370899995  0.8882055822205140  0.8764553682927271
  0.3764137137036949  0.1113759013450346  0.3733038519276517
  0.3805680023411132  0.6104134884471147  0.3743383614689988
  0.8773313416264031  0.1125417086450060  0.3731351442921628
  0.8767164703977826  0.6104648589706131  0.3748414336968915
  0.3622407962077711  0.1311067798767384  0.6263642932543549
  0.3823662570476682  0.6445288029956519  0.6259732108461706
  0.8797900194960614  0.1435874358012737  0.6242127865195305
  0.8913580246568329  0.6467866861537116  0.6212348289570258
  0.3777857638630929  0.1385097649432626  0.8749229986971339
  0.3785518932816936  0.6379323156644381  0.8752860905075713
  0.8786708749536067  0.1382783369268657  0.8755819007920536
  0.8755757872103209  0.6370915435273523  0.8739673391270446
  0.3778402263992076  0.1106755196516200  0.1248622592969490
  0.3780557334337538  0.6106627434295863  0.1252373476428137
  0.8781311627116338  0.1101862824514649  0.1252039608991514
  0.8782411971847851  0.6113905667872397  0.1253943748626014
  0.1238092175862232  0.3917479036342428  0.6256028598031679
  0.1202581904415727  0.8911718802349944  0.6240998488802806
  0.6134705458023701  0.3564707200343141  0.6211322576577437
  0.6224046954188903  0.8938528063024717  0.6257333957655409
  0.1207866856323611  0.3623753307075316  0.3739954594341623
  0.1198128211176743  0.8606600383612563  0.3756683222868346
  0.6226467963459971  0.3599131487711018  0.3756303592966911
  0.6213102451340691  0.8607272738153635  0.3756712528950114
  0.0176265113105570  0.0209779969550126  0.3939136433133374
  0.0193582470268425  0.5229243906503869  0.3946718842435178
  0.5168378367363340  0.0205909678466688  0.3921102827961871
  0.5225103318125753  0.5209418878800556  0.3914348171341085
  0.0245603541920033  0.2262705453866467  0.6072001526285088
  0.0325486773537226  0.7284017180840880  0.6021303644581323
  0.5166912253105584  0.2275475403857090  0.5978696608219248
  0.5218260201019946  0.7360078581887520  0.6063323218740280
  0.4788029828436127  0.2723860433259510  0.1061013106389937
  0.4785753908785651  0.7730018593186497  0.1070292127858544
  0.9787998093553905  0.2731556488821426  0.1068647685696863
  0.9779674804750640  0.7734456304462471  0.1072784522021477
  0.4769908569986124  0.4733254754186940  0.8900539543853065
  0.4785558931463795  0.9755314495291181  0.8918394537069294
  0.9770554785649976  0.4751997300380104  0.8899765065531908
  0.9793656848437796  0.9751548380346414  0.8911744224642189
  0.5204692799114066  0.4936188864521223  0.6116426125443295
  0.4797546651266618  0.9818162556767699  0.6075839661959429
  0.9792261002903497  0.4789307016992583  0.6095957516459155
  0.9789645612709260  0.9791049872846216  0.6073292388966628
  0.4809601747193197  0.2718121291972149  0.3959488407631554
  0.4802732571747593  0.7707616245883840  0.3957123741331608
  0.9799621369133799  0.2720668632163932  0.3935450502195069
  0.9794057244814078  0.7712068540885387  0.3994656666753337
  0.0220276352830727  0.2256074220676423  0.8928388168592777
  0.0208723599725839  0.7223028624606387  0.8854572545861426
  0.5213469572533646  0.2249583618055058  0.8923469407681770
  0.5220379265386174  0.7252162874415569  0.8922533655071119
  0.0214426241864879  0.0223146475421094  0.1078165008599567
  0.0206130828868776  0.5241926299872143  0.1069384857557399
  0.5203456116906451  0.0226179911355250  0.1074516148951120
  0.5207113997728603  0.5229242576609221  0.1076682761189677
  0.2286273051420217  0.2347589929660695  0.3569419084233169
  0.2286463091371124  0.7328006961326305  0.3624145715630447
  0.7287812812186367  0.2320094206118790  0.3548063508566620
  0.7298588604271449  0.7329522692445619  0.3601047769850527
  0.2253722095766561  0.0237617767129146  0.6486700565440647
  0.2335093320396428  0.5167926917906124  0.6436362896841707
  0.7277120744775744  0.0241333969931366  0.6445164063498495
  0.2716517095411775  0.4834336199341834  0.1443491195890443
  0.2705977922135934  0.9830962655292356  0.1437784145383214
  0.7718209363848180  0.4837667468392805  0.1430357615457592
  0.7713948292920380  0.9831207225119583  0.1447636138714776
  0.2717295577043777  0.2663730240416563  0.8568064824842359
  0.2723636871314515  0.7657304174841951  0.8553563027767990
  0.7727722481529351  0.2665966645512856  0.8588172902552136
  0.7718078013433514  0.7666346591637720  0.8554597184294309
  0.2749966124739632  0.2707415303967282  0.6440650092410489
  0.2766779872114664  0.7718641980688161  0.6427143383390461
  0.7821923930757875  0.2846542304154337  0.6422910227543334
  0.7759578250132936  0.7671626590446864  0.6396154227560926
  0.2712327310527747  0.4842202464347052  0.3568690385874225
  0.2690652125281021  0.9847387270759531  0.3552626013549442
  0.7721812908352453  0.4830459197864933  0.3545176307254307
  0.7702403952503347  0.9843199888047951  0.3566092592442384
  0.2288449357581520  0.0151452431479128  0.8541727245354750
  0.2278899014351182  0.5169388507577600  0.8562496481913725
  0.7291095802231031  0.0160628947790548  0.8580361489603434
  0.7247336233340552  0.5172675118643641  0.8560985411618023
  0.2277033426132602  0.2334814037654692  0.1436397682368968
  0.2280250743680296  0.7333132536731644  0.1438372987724125
  0.7284333502833829  0.2329697828764395  0.1432734556446878
  0.7280909789962623  0.7326001474294621  0.1442329322900659
  0.3385302809717413  0.1235218983584048  0.9995382177860658
  0.3395937557234985  0.6242212698367285  0.9997776510136944
  0.8403233748383359  0.1226646537479210  0.0004785024235245
  0.8404086726762314  0.6254386769595781  0.9983422091943731
  0.1591033352012888  0.3768276638968746  0.5004473900189325
  0.1640897875721195  0.8838458758953053  0.5017358371187360
  0.6696999042115840  0.3753907811832539  0.4995910238288404
  0.6606171118470426  0.8829145976966869  0.4999624767166775
  0.1599948574009360  0.3762460962509125  0.0000638741587561
  0.1584216678062209  0.8714087329887479  0.9987345472906539
  0.6596478937992489  0.3753834917965822  0.9995100094472226
  0.6608746652002494  0.8738038733412501  0.0005641604225501
  0.3358668122009008  0.1227636247131597  0.5010349387495416
  0.3475754642147250  0.6142063012628770  0.5030102434625238
  0.8385541070499798  0.1268869407768917  0.5012262628171129
  0.8317955796904565  0.6094940188355609  0.5060999551841372
  0.0878387249456158  0.3905084215773249  0.2501897847667612
  0.0884470518883468  0.8847919092214317  0.2517298976433922
  0.5892462671040993  0.3869411835385376  0.2501367519475465
  0.5889658536062587  0.8872370937211677  0.2509927028203682
  0.0918039860802316  0.3602558145845595  0.7498667460817293
  0.0893107595110792  0.8596810205373681  0.7476765721302396
  0.5974901291693550  0.3548590106743207  0.7474285786703352
  0.5927498536556185  0.8629784155112323  0.7497594716974616
  0.4103266896053571  0.1403647175577057  0.2499362085389680
  0.4103149093652111  0.6400229136585790  0.2507416559142022
  0.9125000669665734  0.1392140115542626  0.2501746464505372
  0.9106522242176349  0.6388825522169809  0.2515993918942494
  0.4134438748657252  0.1141977785057460  0.7484653854564546
  0.4113656468285061  0.6105557332830511  0.7494748410856235
  0.9083548964809134  0.1144737564910760  0.7493473773744300
  0.8916014902749754  0.6022503958542169  0.7433457917261296
 
  0.00000000E+00  0.00000000E+00  0.00000000E+00
  0.00000000E+00  0.00000000E+00  0.00000000E+00
  0.00000000E+00  0.00000000E+00  0.00000000E+00
  0.00000000E+00  0.00000000E+00  0.00000000E+00
  0.00000000E+00  0.00000000E+00  0.00000000E+00
  0.00000000E+00  0.00000000E+00  0.00000000E+00
  0.00000000E+00  0.00000000E+00  0.00000000E+00
  0.00000000E+00  0.00000000E+00  0.00000000E+00
  0.00000000E+00  0.00000000E+00  0.00000000E+00
  0.00000000E+00  0.00000000E+00  0.00000000E+00
  0.00000000E+00  0.00000000E+00  0.00000000E+00
  0.00000000E+00  0.00000000E+00  0.00000000E+00
  0.00000000E+00  0.00000000E+00  0.00000000E+00
  0.00000000E+00  0.00000000E+00  0.00000000E+00
  0.00000000E+00  0.00000000E+00  0.00000000E+00
  0.00000000E+00  0.00000000E+00  0.00000000E+00
  0.00000000E+00  0.00000000E+00  0.00000000E+00
  0.00000000E+00  0.00000000E+00  0.00000000E+00
  0.00000000E+00  0.00000000E+00  0.00000000E+00
  0.00000000E+00  0.00000000E+00  0.00000000E+00
  0.00000000E+00  0.00000000E+00  0.00000000E+00
  0.00000000E+00  0.00000000E+00  0.00000000E+00
  0.00000000E+00  0.00000000E+00  0.00000000E+00
  0.00000000E+00  0.00000000E+00  0.00000000E+00
  0.00000000E+00  0.00000000E+00  0.00000000E+00
  0.00000000E+00  0.00000000E+00  0.00000000E+00
  0.00000000E+00  0.00000000E+00  0.00000000E+00
  0.00000000E+00  0.00000000E+00  0.00000000E+00
  0.00000000E+00  0.00000000E+00  0.00000000E+00
  0.00000000E+00  0.00000000E+00  0.00000000E+00
  0.00000000E+00  0.00000000E+00  0.00000000E+00
  0.00000000E+00  0.00000000E+00  0.00000000E+00
  0.00000000E+00  0.00000000E+00  0.00000000E+00
  0.00000000E+00  0.00000000E+00  0.00000000E+00
  0.00000000E+00  0.00000000E+00  0.00000000E+00
  0.00000000E+00  0.00000000E+00  0.00000000E+00
  0.00000000E+00  0.00000000E+00  0.00000000E+00
  0.00000000E+00  0.00000000E+00  0.00000000E+00
  0.00000000E+00  0.00000000E+00  0.00000000E+00
  0.00000000E+00  0.00000000E+00  0.00000000E+00
  0.00000000E+00  0.00000000E+00  0.00000000E+00
  0.00000000E+00  0.00000000E+00  0.00000000E+00
  0.00000000E+00  0.00000000E+00  0.00000000E+00
  0.00000000E+00  0.00000000E+00  0.00000000E+00
  0.00000000E+00  0.00000000E+00  0.00000000E+00
  0.00000000E+00  0.00000000E+00  0.00000000E+00
  0.00000000E+00  0.00000000E+00  0.00000000E+00
  0.00000000E+00  0.00000000E+00  0.00000000E+00
  0.00000000E+00  0.00000000E+00  0.00000000E+00
  0.00000000E+00  0.00000000E+00  0.00000000E+00
  0.00000000E+00  0.00000000E+00  0.00000000E+00
  0.00000000E+00  0.00000000E+00  0.00000000E+00
  0.00000000E+00  0.00000000E+00  0.00000000E+00
  0.00000000E+00  0.00000000E+00  0.00000000E+00
  0.00000000E+00  0.00000000E+00  0.00000000E+00
  0.00000000E+00  0.00000000E+00  0.00000000E+00
  0.00000000E+00  0.00000000E+00  0.00000000E+00
  0.00000000E+00  0.00000000E+00  0.00000000E+00
  0.00000000E+00  0.00000000E+00  0.00000000E+00
  0.00000000E+00  0.00000000E+00  0.00000000E+00
  0.00000000E+00  0.00000000E+00  0.00000000E+00
  0.00000000E+00  0.00000000E+00  0.00000000E+00
  0.00000000E+00  0.00000000E+00  0.00000000E+00
  0.00000000E+00  0.00000000E+00  0.00000000E+00
  0.00000000E+00  0.00000000E+00  0.00000000E+00
  0.00000000E+00  0.00000000E+00  0.00000000E+00
  0.00000000E+00  0.00000000E+00  0.00000000E+00
  0.00000000E+00  0.00000000E+00  0.00000000E+00
  0.00000000E+00  0.00000000E+00  0.00000000E+00
  0.00000000E+00  0.00000000E+00  0.00000000E+00
  0.00000000E+00  0.00000000E+00  0.00000000E+00
  0.00000000E+00  0.00000000E+00  0.00000000E+00
  0.00000000E+00  0.00000000E+00  0.00000000E+00
  0.00000000E+00  0.00000000E+00  0.00000000E+00
  0.00000000E+00  0.00000000E+00  0.00000000E+00
  0.00000000E+00  0.00000000E+00  0.00000000E+00
  0.00000000E+00  0.00000000E+00  0.00000000E+00
  0.00000000E+00  0.00000000E+00  0.00000000E+00
  0.00000000E+00  0.00000000E+00  0.00000000E+00
  0.00000000E+00  0.00000000E+00  0.00000000E+00
  0.00000000E+00  0.00000000E+00  0.00000000E+00
  0.00000000E+00  0.00000000E+00  0.00000000E+00
  0.00000000E+00  0.00000000E+00  0.00000000E+00
  0.00000000E+00  0.00000000E+00  0.00000000E+00
  0.00000000E+00  0.00000000E+00  0.00000000E+00
  0.00000000E+00  0.00000000E+00  0.00000000E+00
  0.00000000E+00  0.00000000E+00  0.00000000E+00
  0.00000000E+00  0.00000000E+00  0.00000000E+00
  0.00000000E+00  0.00000000E+00  0.00000000E+00
  0.00000000E+00  0.00000000E+00  0.00000000E+00
  0.00000000E+00  0.00000000E+00  0.00000000E+00
  0.00000000E+00  0.00000000E+00  0.00000000E+00
  0.00000000E+00  0.00000000E+00  0.00000000E+00
  0.00000000E+00  0.00000000E+00  0.00000000E+00
  0.00000000E+00  0.00000000E+00  0.00000000E+00
  0.00000000E+00  0.00000000E+00  0.00000000E+00
  0.00000000E+00  0.00000000E+00  0.00000000E+00
  0.00000000E+00  0.00000000E+00  0.00000000E+00
  0.00000000E+00  0.00000000E+00  0.00000000E+00
  0.00000000E+00  0.00000000E+00  0.00000000E+00
  0.00000000E+00  0.00000000E+00  0.00000000E+00
  0.00000000E+00  0.00000000E+00  0.00000000E+00
  0.00000000E+00  0.00000000E+00  0.00000000E+00
  0.00000000E+00  0.00000000E+00  0.00000000E+00
  0.00000000E+00  0.00000000E+00  0.00000000E+00
  0.00000000E+00  0.00000000E+00  0.00000000E+00
  0.00000000E+00  0.00000000E+00  0.00000000E+00
  0.00000000E+00  0.00000000E+00  0.00000000E+00
  0.00000000E+00  0.00000000E+00  0.00000000E+00
  0.00000000E+00  0.00000000E+00  0.00000000E+00
  0.00000000E+00  0.00000000E+00  0.00000000E+00
  0.00000000E+00  0.00000000E+00  0.00000000E+00
  0.00000000E+00  0.00000000E+00  0.00000000E+00
  0.00000000E+00  0.00000000E+00  0.00000000E+00
  0.00000000E+00  0.00000000E+00  0.00000000E+00
  0.00000000E+00  0.00000000E+00  0.00000000E+00
  0.00000000E+00  0.00000000E+00  0.00000000E+00
  0.00000000E+00  0.00000000E+00  0.00000000E+00
  0.00000000E+00  0.00000000E+00  0.00000000E+00
  0.00000000E+00  0.00000000E+00  0.00000000E+00
  0.00000000E+00  0.00000000E+00  0.00000000E+00
  0.00000000E+00  0.00000000E+00  0.00000000E+00
  0.00000000E+00  0.00000000E+00  0.00000000E+00
  0.00000000E+00  0.00000000E+00  0.00000000E+00
  0.00000000E+00  0.00000000E+00  0.00000000E+00
  0.00000000E+00  0.00000000E+00  0.00000000E+00
  0.00000000E+00  0.00000000E+00  0.00000000E+00
  0.00000000E+00  0.00000000E+00  0.00000000E+00
  0.00000000E+00  0.00000000E+00  0.00000000E+00
  0.00000000E+00  0.00000000E+00  0.00000000E+00
  0.00000000E+00  0.00000000E+00  0.00000000E+00
  0.00000000E+00  0.00000000E+00  0.00000000E+00
  0.00000000E+00  0.00000000E+00  0.00000000E+00
  0.00000000E+00  0.00000000E+00  0.00000000E+00
  0.00000000E+00  0.00000000E+00  0.00000000E+00
  0.00000000E+00  0.00000000E+00  0.00000000E+00
  0.00000000E+00  0.00000000E+00  0.00000000E+00
  0.00000000E+00  0.00000000E+00  0.00000000E+00
  0.00000000E+00  0.00000000E+00  0.00000000E+00
  0.00000000E+00  0.00000000E+00  0.00000000E+00
  0.00000000E+00  0.00000000E+00  0.00000000E+00
  0.00000000E+00  0.00000000E+00  0.00000000E+00
  0.00000000E+00  0.00000000E+00  0.00000000E+00
  0.00000000E+00  0.00000000E+00  0.00000000E+00
  0.00000000E+00  0.00000000E+00  0.00000000E+00
  0.00000000E+00  0.00000000E+00  0.00000000E+00
  0.00000000E+00  0.00000000E+00  0.00000000E+00
  0.00000000E+00  0.00000000E+00  0.00000000E+00
  0.00000000E+00  0.00000000E+00  0.00000000E+00
  0.00000000E+00  0.00000000E+00  0.00000000E+00
  0.00000000E+00  0.00000000E+00  0.00000000E+00
  0.00000000E+00  0.00000000E+00  0.00000000E+00
  0.00000000E+00  0.00000000E+00  0.00000000E+00
  0.00000000E+00  0.00000000E+00  0.00000000E+00
  0.00000000E+00  0.00000000E+00  0.00000000E+00
  0.00000000E+00  0.00000000E+00  0.00000000E+00
  0.00000000E+00  0.00000000E+00  0.00000000E+00
  0.00000000E+00  0.00000000E+00  0.00000000E+00
  0.00000000E+00  0.00000000E+00  0.00000000E+00
