ALGO = Normal
AMIX = 0.2
EDIFF = 1e-05
EDIFFG = -0.05
ENCUT = 550
IBRION = 3
ICHAIN = 0
IMAGES = 4
IOPT = 0
ISIF = 2
ISMEAR = 0
ISPIN = 1
ISYM = 0
LCHARG = True
LCLIMB = .TRUE.
LDNEB = .FALSE.
LNEBCELL = .FALSE.
LORBIT = 10
LREAL = False
LTANGENTOLD = .FALSE.
LWAVE = True
NELECT = 952.0
NELM = 200
NSW = 25
POTIM = 0.05
SIGMA = 0.05
SPRING = -5
SYSTEM = Na32nb32o95
