Na32 Nb32 O95
1.0
11.148091 0.000000 0.000000
0.000000 11.366043 0.000000
0.000000 0.000000 15.594934
Na Nb O
32 32 95
direct
0.128106 0.126413 -0.000002 Na
0.128661 0.625565 0.000362 Na
0.628180 0.124730 0.000033 Na
0.628235 0.626396 -0.000409 Na
0.365427 0.368498 0.492196 Na
0.372852 0.889308 0.494930 Na
0.873840 0.378970 0.494286 Na
0.867114 0.868447 0.495878 Na
0.370435 0.374704 0.001202 Na
0.371291 0.875528 0.000748 Na
0.870543 0.376717 0.001153 Na
0.870059 0.875261 0.000325 Na
0.134167 0.129334 0.495347 Na
0.130192 0.623165 0.497021 Na
0.626661 0.121700 0.498040 Na
0.632121 0.627217 0.499065 Na
0.129764 0.099886 0.249237 Na
0.130194 0.600583 0.249681 Na
0.630227 0.100242 0.249899 Na
0.629954 0.600396 0.249218 Na
0.131687 0.152027 0.753091 Na
0.122374 0.649071 0.754823 Na
0.627092 0.141604 0.757590 Na
0.629145 0.648542 0.748583 Na
0.369625 0.350378 0.248584 Na
0.369867 0.850485 0.249296 Na
0.869408 0.350464 0.249554 Na
0.869776 0.850210 0.249684 Na
0.365259 0.395800 0.757276 Na
0.372749 0.905516 0.754987 Na
0.881630 0.400753 0.757255 Na
0.868332 0.896637 0.754164 Na
0.121377 0.360716 0.125071 Nb
0.121637 0.860718 0.125062 Nb
0.621680 0.361107 0.124415 Nb
0.621455 0.860561 0.125562 Nb
0.121502 0.388442 0.875556 Nb
0.121366 0.888659 0.875080 Nb
0.620594 0.388868 0.874195 Nb
0.621328 0.887092 0.875139 Nb
0.378252 0.111980 0.373372 Nb
0.379673 0.610830 0.374915 Nb
0.877757 0.111245 0.375393 Nb
0.878474 0.610989 0.374452 Nb
0.379525 0.142949 0.625261 Nb
0.370592 0.650939 0.628712 Nb
0.891054 0.124718 0.622812 Nb
0.879323 0.641292 0.625354 Nb
0.377691 0.138143 0.875508 Nb
0.377194 0.637073 0.874108 Nb
0.876282 0.138673 0.874670 Nb
0.877169 0.638789 0.875308 Nb
0.378434 0.110636 0.125105 Nb
0.378343 0.611519 0.124891 Nb
0.877785 0.111020 0.125101 Nb
0.878139 0.610725 0.125199 Nb
0.122967 0.390348 0.625267 Nb
0.123353 0.890976 0.625713 Nb
0.652828 0.368933 0.630308 Nb
0.621967 0.891646 0.625500 Nb
0.121184 0.361580 0.373805 Nb
0.121872 0.860811 0.375432 Nb
0.620451 0.362876 0.373966 Nb
0.620484 0.860317 0.374845 Nb
0.018549 0.021548 0.395743 O
0.020725 0.521991 0.392955 O
0.518948 0.021517 0.392879 O
0.523413 0.524784 0.390911 O
0.024472 0.223078 0.607526 O
0.024251 0.725045 0.607914 O
0.518391 0.239527 0.605832 O
0.520738 0.723014 0.607760 O
0.479262 0.273246 0.106633 O
0.478407 0.772892 0.107486 O
0.978933 0.272558 0.107012 O
0.979078 0.773204 0.106808 O
0.477513 0.475006 0.892760 O
0.478622 0.976090 0.892025 O
0.978485 0.476440 0.892478 O
0.979859 0.976968 0.893184 O
0.720715 0.520326 0.643442 O
0.478622 0.979752 0.606887 O
0.979387 0.475900 0.607719 O
0.972857 0.973478 0.601934 O
0.479043 0.272945 0.391726 O
0.477604 0.772112 0.394989 O
0.979984 0.271968 0.392243 O
0.980012 0.772124 0.393039 O
0.018630 0.227271 0.891748 O
0.020899 0.726248 0.891672 O
0.521360 0.225719 0.890668 O
0.520435 0.724920 0.889631 O
0.020432 0.023011 0.107318 O
0.020462 0.522915 0.106464 O
0.520647 0.022744 0.106661 O
0.520593 0.523375 0.106511 O
0.228542 0.233423 0.356434 O
0.229141 0.731240 0.362100 O
0.728107 0.235691 0.359998 O
0.728124 0.733083 0.357040 O
0.222465 0.022597 0.642777 O
0.233327 0.517078 0.643779 O
0.724490 0.022536 0.643454 O
0.271723 0.483845 0.142196 O
0.271394 0.983365 0.143257 O
0.771196 0.483079 0.143259 O
0.771005 0.983351 0.143044 O
0.270125 0.265058 0.856947 O
0.271440 0.764001 0.851486 O
0.768893 0.264878 0.851604 O
0.770886 0.766350 0.856300 O
0.272276 0.269013 0.644104 O
0.273895 0.779914 0.647885 O
0.784451 0.273398 0.649067 O
0.774741 0.770766 0.642739 O
0.272694 0.482859 0.357635 O
0.270594 0.983815 0.357165 O
0.772279 0.482248 0.357980 O
0.769982 0.984005 0.358510 O
0.229312 0.015061 0.855181 O
0.228467 0.515921 0.855313 O
0.728956 0.014729 0.856756 O
0.727260 0.515746 0.855640 O
0.228332 0.233509 0.143608 O
0.228289 0.733142 0.143486 O
0.728171 0.233612 0.143231 O
0.728335 0.733338 0.143917 O
0.339380 0.124980 -0.000398 O
0.339964 0.627259 -0.002002 O
0.838561 0.126049 -0.000771 O
0.838377 0.624668 -0.000280 O
0.159388 0.374404 0.500274 O
0.161611 0.875244 0.501757 O
0.649695 0.383552 0.504060 O
0.658802 0.874950 0.500455 O
0.160727 0.374810 -0.000265 O
0.161427 0.873446 -0.000859 O
0.660154 0.374080 -0.001631 O
0.659164 0.873001 -0.000261 O
0.341796 0.126883 0.500126 O
0.349071 0.608044 0.506907 O
0.836283 0.131978 0.501772 O
0.841112 0.625724 0.500312 O
0.089714 0.389971 0.249698 O
0.091119 0.887441 0.251001 O
0.589628 0.388647 0.250031 O
0.588694 0.888334 0.250467 O
0.090950 0.361201 0.749741 O
0.085747 0.863510 0.748396 O
0.580374 0.366708 0.745704 O
0.589442 0.861669 0.749277 O
0.411461 0.139119 0.249621 O
0.408797 0.638159 0.250677 O
0.908045 0.138093 0.250897 O
0.910392 0.638752 0.250066 O
0.410689 0.112225 0.748767 O
0.414601 0.600905 0.745115 O
0.911102 0.107581 0.748536 O
0.908549 0.610172 0.749813 O
